Si Li                                   
   1.00000000000000     
     5.6431770032465192    0.0000000000000000    0.0000000000000000
     0.0000000000000000    5.6431770032465192    0.0000000000000000
     0.0000000000000000    0.0000000000000000    5.6431770032465192
   Si   Li
     8     3
Selective dynamics
Direct
  0.9919540177825397  0.0341124363388516  0.0105297887685225   T   T   T
  0.2371910340925538  0.2742250045764791  0.2659529582798328   T   T   T
  0.4920444046566459  0.5096772715065043  0.0102613110916820   T   T   T
  0.7442926928301290  0.7614698347341005  0.2630214994733251   T   T   T
  0.4916721367722445  0.0327411916839608  0.5106637884726410   T   T   T
  0.7469356599459971  0.2742473911202126  0.7549202011509450   T   T   T
  0.9914112738790095  0.4938121962868394  0.5099384081430358   T   T   T
  0.2391412318159567  0.7607928006078382  0.7575849495816485   T   T   T
  0.4914559748944853  0.0405314728277801  0.0098896086096261   T   T   T
  0.7562828034804454  0.7618446569633548  0.7476088252363837   T   T   T
  0.2280516036340003  0.7615043842080595  0.2729856607473593   T   T   T
 
  0.00000000E+00  0.00000000E+00  0.00000000E+00
  0.00000000E+00  0.00000000E+00  0.00000000E+00
  0.00000000E+00  0.00000000E+00  0.00000000E+00
  0.00000000E+00  0.00000000E+00  0.00000000E+00
  0.00000000E+00  0.00000000E+00  0.00000000E+00
  0.00000000E+00  0.00000000E+00  0.00000000E+00
  0.00000000E+00  0.00000000E+00  0.00000000E+00
  0.00000000E+00  0.00000000E+00  0.00000000E+00
  0.00000000E+00  0.00000000E+00  0.00000000E+00
  0.00000000E+00  0.00000000E+00  0.00000000E+00
  0.00000000E+00  0.00000000E+00  0.00000000E+00
