Si Li
1.0
  5.453060000000   0.000000000000   0.000000000000
  0.000000000000   5.453060000000   0.000000000000
  0.000000000000   0.000000000000   5.453060000000
Si Li
  8   3
Selective dynamics
Direct
  0.000000000000   0.000000000000   0.000000000000  T T T
  0.250000183383   0.250000183383   0.250000183383  T T T
  0.500000000000   0.500000000000   0.000000000000  T T T
  0.750000183383   0.750000183383   0.250000183383  T T T
  0.500000000000   0.000000000000   0.500000000000  T T T
  0.750000183383   0.250000183383   0.750000183383  T T T
  0.000000000000   0.500000000000   0.500000000000  T T T
  0.250000183383   0.750000183383   0.750000183383  T T T
  0.455729145434   0.074114365274   0.982955581307  T T T
  0.824932400194   0.781939924703   0.722867555666  T T T
  0.129770554624   0.848903617345   0.407533129050  T T T
