# NEB simulation of vacancy hopping in silicon crystal

units           real

atom_style      charge
atom_modify     map array
boundary        p p p
atom_modify	sort 0 0.0

# coordination number cutoff

variable r equal 2.835

# diamond unit cell

read_data       initial.sivac

mass            1       28.06 # Si

# make a vacancy

group Si type 1

group del id 300
delete_atoms group del compress no
group vacneigh id 174 175 301 304 306 331 337 # related to final.sivac and initial.sivac (aroung id 300 atom)

# choose potential

pair_style	reax/c lmp_control
pair_coeff * * ffield.reax.2023X4.CHOSiNaAl Si
fix				f1 all qeq/reax 1 0.0 10.0 1e-6 reax/c

timestep        0.25

# set up neb run

variable	u uloop 20 # 20 replica

# only output atoms near vacancy (id 300 atom)

# initial minimization to relax vacancy

displace_atoms all random 0.1 0.1 0.1 123456
minimize	1.0e-6 1.0e-4 1000 10000

reset_timestep	0

dump events vacneigh custom 1000 dump.neb.sivac.$u id type x y z # ovito can read these outputs

fix		1 all neb 1.0 

thermo		100

# run NEB for 2000 steps or to force tolerance

timestep        2.5
min_style	quickmin

neb		0.0 0.01 100 100 10 final final.sivac
