C14 H14 N8 O
1.0
        5.8042998314         0.0000000000         0.0000000000
        0.0000000000        31.5620002747         0.0000000000
       -0.8063706814         0.0000000000         7.8567274732
    N    H    O    C
   32   56    4   56
Direct
     0.472499996         0.178540006         0.975899994
     0.527500033         0.821460009         0.024100006
     0.527500033         0.678539991         0.524100006
     0.472499996         0.321460009         0.475899994
     0.659200013         0.155100003         0.043300033
     0.340799987         0.844900012         0.956699967
     0.340799987         0.655099988         0.456699967
     0.659200013         0.344900012         0.543300033
     0.477899998         0.096819997         0.907100022
     0.522099972         0.903180003         0.092899978
     0.522099972         0.596819997         0.592899978
     0.477899998         0.403180003         0.407100022
     0.483399987         0.057310000         0.854399979
     0.516600013         0.942690015         0.145600021
     0.516600013         0.557309985         0.645600021
     0.483399987         0.442690015         0.354399979
     0.852999985         0.089869998         0.055199981
     0.147000015         0.910130024         0.944800019
     0.147000015         0.589869976         0.444800019
     0.852999985         0.410129994         0.555199981
     0.859799981         0.049840000         0.005699992
     0.140200019         0.950160027         0.994300008
     0.140200019         0.549839973         0.494300008
     0.859799981         0.450159997         0.505699992
     0.703499973         0.995819986         0.839500010
     0.296500027         0.004180000         0.160499990
     0.296500027         0.495819986         0.660499990
     0.703499973         0.504180014         0.339500010
     0.528500021         0.978139997         0.730700016
     0.471499979         0.021860000         0.269299984
     0.471499979         0.478139997         0.769299984
     0.528500021         0.521860003         0.230700016
     0.827300012         0.981599987         0.869400024
     0.172699988         0.018400000         0.130599976
     0.172699988         0.481599987         0.630599976
     0.827300012         0.518400013         0.369400024
     0.820299983         0.861599982         0.203999996
     0.179700002         0.138400003         0.796000004
     0.179700002         0.361599982         0.296000004
     0.820299983         0.638400018         0.703999996
     0.393500000         0.277200013         0.051800013
     0.606500030         0.722800016         0.948199987
     0.606500030         0.777199984         0.448199987
     0.393500000         0.222799987         0.551800013
     0.322699994         0.256099999         0.874499977
     0.677299976         0.743900001         0.125500023
     0.677299976         0.756099999         0.625500023
     0.322699994         0.243900001         0.374499977
     0.192200005         0.243900001         0.031800032
     0.807799995         0.756099999         0.968199968
     0.807799995         0.743900001         0.468199968
     0.192200005         0.256099999         0.531800032
     0.780099988         0.242500007         0.203999996
     0.219900012         0.757499993         0.796000004
     0.219900012         0.742500007         0.296000004
     0.780099988         0.257499993         0.703999996
     0.048499942         0.133399993         0.214699984
     0.951500058         0.866600037         0.785300016
     0.951500058         0.633399963         0.285300016
     0.048499942         0.366600007         0.714699984
     0.159700036         0.178399995         0.204599977
     0.840299964         0.821600020         0.795400023
     0.840299964         0.678399980         0.295400023
     0.159700036         0.321600020         0.704599977
     0.025400043         0.166400000         0.360200047
     0.974599957         0.833599985         0.639799953
     0.974599957         0.666400015         0.139799953
     0.025400043         0.333599985         0.860200047
     0.706499994         0.927800000         0.715799987
     0.293500006         0.072200000         0.284200013
     0.293500006         0.427800000         0.784200013
     0.706499994         0.572200000         0.215799987
     0.583800018         0.864700019         0.555000007
     0.416199982         0.135299996         0.444999993
     0.416199982         0.364700019         0.944999993
     0.583800018         0.635299981         0.055000007
     0.326000005         0.827199996         0.372299999
     0.674000025         0.172800004         0.627699971
     0.674000025         0.327199996         0.127700001
     0.326000005         0.672800004         0.872300029
     0.889899969         0.926299989         0.345400006
     0.110100001         0.073700003         0.654600024
     0.110100001         0.426299989         0.154599994
     0.889899969         0.573700011         0.845399976
     0.150000006         0.963800013         0.529100001
     0.850000024         0.036200002         0.470899999
     0.850000024         0.463800013         0.970899999
     0.150000006         0.536199987         0.029100001
     0.938300014         0.848330021         0.235599995
     0.061700001         0.151669994         0.764400005
     0.061700001         0.348330021         0.264400005
     0.938300014         0.651669979         0.735599995
     0.339399993         0.251599997         0.995400012
     0.660600007         0.748399973         0.004599988
     0.660600007         0.751600027         0.504599988
     0.339399993         0.248400003         0.495400012
     0.509999990         0.216820002         0.038900018
     0.490000010         0.783179998         0.961099982
     0.490000010         0.716820002         0.461099982
     0.509999990         0.283179998         0.538900018
     0.718200028         0.218789995         0.145799994
     0.281799972         0.781210005         0.854200006
     0.281799972         0.718789995         0.354200006
     0.718200028         0.281210005         0.645799994
     0.812399983         0.178959996         0.147500038
     0.187600017         0.821040034         0.852499962
     0.187600017         0.678959966         0.352499962
     0.812399983         0.321040004         0.647500038
     0.030799985         0.162870005         0.239899993
     0.969200015         0.837130010         0.760100007
     0.969200015         0.662869990         0.260100007
     0.030799985         0.337130010         0.739899993
     0.665799975         0.112389997         0.998899996
     0.334200025         0.887610018         0.001100004
     0.334200025         0.612389982         0.501100004
     0.665799975         0.387610018         0.498899996
     0.680499971         0.035349999         0.898800015
     0.319500029         0.964649975         0.101199985
     0.319500029         0.535350025         0.601199985
     0.680499971         0.464650005         0.398800015
     0.566900015         0.940909982         0.679000020
     0.433099985         0.059090000         0.320999980
     0.433099985         0.440910012         0.820999980
     0.566900015         0.559090018         0.179000020
     0.397100002         0.918219984         0.563099980
     0.602900028         0.081780002         0.436900020
     0.602900028         0.418219984         0.936900020
     0.397100002         0.581780016         0.063099980
     0.444400012         0.877200007         0.513400018
     0.555599988         0.122800000         0.486599982
     0.555599988         0.377200007         0.986599982
     0.444400012         0.622799993         0.013400018
     0.290199995         0.854629993         0.404199988
     0.709800005         0.145370007         0.595800042
     0.709800005         0.354629993         0.095800012
     0.290199995         0.645370007         0.904199958
     0.080899999         0.872929990         0.341800004
     0.919099987         0.127069995         0.658200026
     0.919099987         0.372929990         0.158199996
     0.080899999         0.627070010         0.841799974
     0.029200001         0.913929999         0.388099998
     0.970799983         0.086070001         0.611899972
     0.970799983         0.413929999         0.111900002
     0.029200001         0.586070001         0.888100028
     0.185599998         0.936380029         0.497999996
     0.814400017         0.063620001         0.501999974
     0.814400017         0.436379999         0.002000004
     0.185599998         0.563619971         0.998000026
