Li Si                                   
   1.00000000000000     
     8.4277073370090001    0.0000000000000000    0.0000000000000000
     0.0000000000000000   19.3590320198400008    0.0000000000000000
     0.0000000000000000    0.0000000000000000   14.0489227678230009
   Li   Si
    95    56
Selective dynamics
Direct
  0.8285808405191546  0.2508432979170652  0.3387848829305276   T   T   T
  0.3451023324886342  0.2506947158394494  0.1584107776242482   T   T   T
  0.1516057452297880  0.7499941991626443  0.6577987706691316   T   T   T
  0.6500428747183296  0.7503801324357248  0.8429706245492908   T   T   T
  0.8856111493869334  0.2506208023725819  0.1323785971601505   T   T   T
  0.3893194376757138  0.2497626936238318  0.3639668023194150   T   T   T
  0.1147837528396674  0.7500933822116107  0.8668162698531232   T   T   T
  0.6145093284460509  0.7501513122527317  0.6334313473235291   T   T   T
  0.6235714206558678  0.1652508344791120  0.1587669359427713   T   T   T
  0.1200854946295788  0.3338725903132470  0.3418273750577710   T   T   T
  0.3756746641095468  0.6660711280735786  0.8403763784444046   T   T   T
  0.8748796354694047  0.8346931288532665  0.6594516951183093   T   T   T
  0.3748435567271216  0.8348769074080727  0.8402688757146493   T   T   T
  0.8766664107477262  0.6657201738977541  0.6594443487004975   T   T   T
  0.6219513449780197  0.3328017900603512  0.1628435811937137   T   T   T
  0.1222490349734204  0.1671329278609204  0.3389865169503921   T   T   T
  0.1293066181609748  0.9733990912734625  0.4338520231008224   T   T   T
  0.6291667105850776  0.5253714924178587  0.0659957725286896   T   T   T
  0.8731447382561420  0.4722679471460841  0.5669457518067875   T   T   T
  0.3707049026326416  0.0265639006193107  0.9338740773753177   T   T   T
  0.8709819836441208  0.0254734778586634  0.5653433641833363   T   T   T
  0.3725511997809805  0.4751311582724783  0.9359389930470251   T   T   T
  0.1300555246166963  0.5243651129572398  0.4367918424090855   T   T   T
  0.6287861961055057  0.9737431563492706  0.0651913150307494   T   T   T
  0.8688416774907172  0.1132222683609927  0.7613785445020383   T   T   T
  0.3709428622302353  0.3889322013831424  0.7427648484420826   T   T   T
  0.1304206897580725  0.6130841813222120  0.2366911750789613   T   T   T
  0.6311587785254074  0.8871405526927710  0.2612972876018196   T   T   T
  0.1310432326310485  0.8873080241824763  0.2374321980064020   T   T   T
  0.6308940550721919  0.6125192216878692  0.2623712327578667   T   T   T
  0.8699063652926453  0.3874504647159164  0.7605380588245376   T   T   T
  0.3699333069377393  0.1130710689593669  0.7369396249948474   T   T   T
  0.1330573223853514  0.9955086067602594  0.0654295682512634   T   T   T
  0.6324044960864647  0.5058774826012725  0.4353600825289174   T   T   T
  0.8687966232809532  0.4971667458592693  0.9365322055195073   T   T   T
  0.3670848048391951  0.0040853696137230  0.5656519239174832   T   T   T
  0.8668663557788845  0.0044836690079343  0.9341323111714589   T   T   T
  0.3795145016454847  0.4823093102936207  0.5677898569548510   T   T   T
  0.1334043862307951  0.5041069282017204  0.0660915027056568   T   T   T
  0.6333881730310172  0.9947250987379519  0.4335775526519549   T   T   T
  0.1276503038115337  0.1464795831323541  0.1373200333204368   T   T   T
  0.6171643848935678  0.3598352353984055  0.3878807239979423   T   T   T
  0.8720456453811911  0.6476115181947253  0.8616205556203896   T   T   T
  0.3709743270042375  0.8534462347972427  0.6378240199141565   T   T   T
  0.8709728768579843  0.8533101070321177  0.8616929240641313   T   T   T
  0.3724177320189500  0.6467876258374241  0.6391482545014430   T   T   T
  0.1273575750234932  0.3539151608124239  0.1388850186516025   T   T   T
  0.6276474095437095  0.1436080731646118  0.3620286388794626   T   T   T
  0.6292203275452667  0.0313491922870428  0.2439816460782222   T   T   T
  0.1274426077411759  0.4682395527636860  0.2560544804503846   T   T   T
  0.3738620561079878  0.5325032238636701  0.7547896086223154   T   T   T
  0.8707453263538596  0.9682791582583982  0.7447815118125453   T   T   T
  0.3711550829392429  0.9682420545402837  0.7551162831311605   T   T   T
  0.8740221304445180  0.5324589630413096  0.7454831694665720   T   T   T
  0.6272168130083475  0.4668249942361237  0.2474530343764234   T   T   T
  0.1289206065417247  0.0319640790626065  0.2549504304957690   T   T   T
  0.3592318688985403  0.3307777213429942  0.9699010973567799   T   T   T
  0.8588283270388243  0.1673971832659854  0.5290904339479984   T   T   T
  0.6415961877199245  0.8305515823540841  0.0295462792606640   T   T   T
  0.1409436067957638  0.6688251128843976  0.4706996528993371   T   T   T
  0.6416414307113329  0.6698398819353210  0.0300995261117032   T   T   T
  0.1415501214997949  0.8298764504942499  0.4700021157045781   T   T   T
  0.3586651211093686  0.1698068920953033  0.9720126734405995   T   T   T
  0.8643798897996147  0.3262730808245921  0.5305759222259480   T   T   T
  0.6041419520402733  0.3209278469234240  0.6400650369455111   T   T   T
  0.1340296175885889  0.1893527121533568  0.8366779326283429   T   T   T
  0.3688622742500525  0.8108956450813977  0.3372795954992642   T   T   T
  0.8682844128177720  0.6890147714969724  0.1626724179903879   T   T   T
  0.3682305601054447  0.6890546970354606  0.3373358065610412   T   T   T
  0.8688693620939156  0.8110781202634643  0.1624719003890335   T   T   T
  0.6328793781179087  0.1936428063750743  0.6612702408044824   T   T   T
  0.1318218844792087  0.3117760175441084  0.8371819617144334   T   T   T
  0.8893677068872451  0.8128066381369502  0.3435672377456387   T   T   T
  0.3900992504103591  0.6871062117960610  0.1565350696209599   T   T   T
  0.1122985362963087  0.3119254826829675  0.6568997891853486   T   T   T
  0.6078994776086946  0.1872399952930907  0.8426764663479117   T   T   T
  0.1120028996504482  0.1863036171237212  0.6544644097520652   T   T   T
  0.6119585099970559  0.3138400767211511  0.8364647150381659   T   T   T
  0.8906658765781684  0.6871339644771265  0.3435200615337992   T   T   T
  0.3900034294594467  0.8129230386751298  0.1562591507623288   T   T   T
  0.6550767348664401  0.1125143277275341  0.9942668499466885   T   T   T
  0.1762704596771540  0.3827485405898430  0.5089568733253251   T   T   T
  0.3461213509179656  0.6133107535650009  0.0046754186968273   T   T   T
  0.8456552431155847  0.8875825221000616  0.4948405430639233   T   T   T
  0.3447465883640511  0.8876925087867736  0.0048012527766552   T   T   T
  0.8436450684790190  0.6125440329915772  0.4951213454891387   T   T   T
  0.6551953478785999  0.3865263441764304  0.9959285816501641   T   T   T
  0.1554298813616973  0.1116336069641292  0.5036548192066899   T   T   T
  0.9980874624456511  0.1261225868818089  0.9710583266160697   T   T   T
  0.0007771086041872  0.6259343431744476  0.0280620093207678   T   T   T
  0.5020805900739826  0.8736962902230669  0.4718795440323369   T   T   T
  0.0006927118024392  0.8744259713187776  0.0274987733258113   T   T   T
  0.4934633304170016  0.6240742461116722  0.4735738963761195   T   T   T
  0.9974180236676428  0.3744220437809094  0.9725582666136627   T   T   T
  0.5006209172741252  0.1241643860560131  0.5284130271953378   T   T   T
  0.8644853814485782  0.2502331688238316  0.9273784884533331   T   T   T
  0.3670482673177877  0.2500550083684447  0.5654991288672181   T   T   T
  0.1358248945104291  0.7504193371433214  0.0701829631224289   T   T   T
  0.6354719164916232  0.7488056349823871  0.4298430566338445   T   T   T
  0.8692807026868212  0.2503887943092624  0.7577633054644487   T   T   T
  0.3698863551411511  0.2510947269898986  0.7360766906363337   T   T   T
  0.1307936969370220  0.7501068991006486  0.2396535952617541   T   T   T
  0.6308370109660979  0.7499189715547517  0.2601740931339615   T   T   T
  0.6171931047172399  0.2501075356583752  0.0107573487435424   T   T   T
  0.1181370322668016  0.2486607119457084  0.4870217054720374   T   T   T
  0.3833210312915906  0.7504763236669215  0.9875804258480714   T   T   T
  0.8833266584117265  0.7499956263753640  0.5121733969540481   T   T   T
  0.1148411513835632  0.2504253923553428  0.0069778869577006   T   T   T
  0.6166941623367480  0.2455855379250458  0.4891122852203665   T   T   T
  0.8854825905912750  0.7502278611756605  0.9923520360895141   T   T   T
  0.3850318138348917  0.7496721780735235  0.5077884302954108   T   T   T
  0.3754672114294615  0.3671575754034408  0.2545238160559686   T   T   T
  0.8758773873775412  0.1335987368373219  0.2481849237654317   T   T   T
  0.6225606036449447  0.8664327282715298  0.7484998601337577   T   T   T
  0.1239960650623888  0.6333755558665481  0.7509850833609500   T   T   T
  0.6241146782391903  0.6345434274883784  0.7485610695613767   T   T   T
  0.1226008229499107  0.8663298065910151  0.7513123317116522   T   T   T
  0.3756988467224615  0.1333636589739867  0.2510101844412203   T   T   T
  0.8726277013699253  0.3669182851650025  0.2507293831892913   T   T   T
  0.3940771275574549  0.4331070770248592  0.1135736279137101   T   T   T
  0.8942045792471527  0.0652734053816677  0.3872284995886059   T   T   T
  0.6059498225596972  0.9341631386342785  0.8876485915824065   T   T   T
  0.1123983487556885  0.5648308508343178  0.6126959132056546   T   T   T
  0.6073976242092042  0.5687467924251295  0.8895350948243137   T   T   T
  0.1059501236062963  0.9339301105224341  0.6119456514653417   T   T   T
  0.3933469311099789  0.0657083901046228  0.1119303855491044   T   T   T
  0.8918344142825142  0.4347291090014290  0.3890949806076077   T   T   T
  0.3820804149773995  0.5506847832943681  0.1640940276599281   T   T   T
  0.8824745901983885  0.9488055985370811  0.3336255084371916   T   T   T
  0.6179821287788991  0.0508624518540766  0.8341506631220945   T   T   T
  0.1213782178184966  0.4485910626397996  0.6671319662132625   T   T   T
  0.6220427117001044  0.4520591483436629  0.8381324209696439   T   T   T
  0.1179371120197623  0.0506868071909138  0.6649362187114908   T   T   T
  0.3822316808886955  0.9489445291720159  0.1650782550936210   T   T   T
  0.8831319596673750  0.5510532043405270  0.3346960151402968   T   T   T
  0.3766017977245458  0.5543461557207301  0.3307715222885245   T   T   T
  0.8799951773863495  0.9461885505071886  0.1663987317873544   T   T   T
  0.6208288877402512  0.0542005258444375  0.6671542588887895   T   T   T
  0.1208502394309575  0.4469844403052586  0.8346526603662983   T   T   T
  0.6258520532650073  0.4475453694814393  0.6722212501041910   T   T   T
  0.1199985885567399  0.0539564259346723  0.8321350920706972   T   T   T
  0.3801969180732455  0.9458428930545648  0.3322958987980932   T   T   T
  0.8802529034704344  0.5536101023051010  0.1674010670620059   T   T   T
  0.3646409652566188  0.4406236814646807  0.3873842914137638   T   T   T
  0.8682925958164802  0.0616405877526257  0.1129613550234386   T   T   T
  0.6314889153575968  0.9385296167542972  0.6134079966983206   T   T   T
  0.1321223556638676  0.5623857272558237  0.8872113643883924   T   T   T
  0.6323395716822110  0.5612784797702512  0.6146763887764365   T   T   T
  0.1312604651828251  0.9386140489668634  0.8863199935543017   T   T   T
  0.3683770798916388  0.0609294869644228  0.3861983073960152   T   T   T
  0.8679385261142623  0.4379487749380843  0.1151399342092557   T   T   T
 
  0.00000000E+00  0.00000000E+00  0.00000000E+00
  0.00000000E+00  0.00000000E+00  0.00000000E+00
  0.00000000E+00  0.00000000E+00  0.00000000E+00
  0.00000000E+00  0.00000000E+00  0.00000000E+00
  0.00000000E+00  0.00000000E+00  0.00000000E+00
  0.00000000E+00  0.00000000E+00  0.00000000E+00
  0.00000000E+00  0.00000000E+00  0.00000000E+00
  0.00000000E+00  0.00000000E+00  0.00000000E+00
  0.00000000E+00  0.00000000E+00  0.00000000E+00
  0.00000000E+00  0.00000000E+00  0.00000000E+00
  0.00000000E+00  0.00000000E+00  0.00000000E+00
  0.00000000E+00  0.00000000E+00  0.00000000E+00
  0.00000000E+00  0.00000000E+00  0.00000000E+00
  0.00000000E+00  0.00000000E+00  0.00000000E+00
  0.00000000E+00  0.00000000E+00  0.00000000E+00
  0.00000000E+00  0.00000000E+00  0.00000000E+00
  0.00000000E+00  0.00000000E+00  0.00000000E+00
  0.00000000E+00  0.00000000E+00  0.00000000E+00
  0.00000000E+00  0.00000000E+00  0.00000000E+00
  0.00000000E+00  0.00000000E+00  0.00000000E+00
  0.00000000E+00  0.00000000E+00  0.00000000E+00
  0.00000000E+00  0.00000000E+00  0.00000000E+00
  0.00000000E+00  0.00000000E+00  0.00000000E+00
  0.00000000E+00  0.00000000E+00  0.00000000E+00
  0.00000000E+00  0.00000000E+00  0.00000000E+00
  0.00000000E+00  0.00000000E+00  0.00000000E+00
  0.00000000E+00  0.00000000E+00  0.00000000E+00
  0.00000000E+00  0.00000000E+00  0.00000000E+00
  0.00000000E+00  0.00000000E+00  0.00000000E+00
  0.00000000E+00  0.00000000E+00  0.00000000E+00
  0.00000000E+00  0.00000000E+00  0.00000000E+00
  0.00000000E+00  0.00000000E+00  0.00000000E+00
  0.00000000E+00  0.00000000E+00  0.00000000E+00
  0.00000000E+00  0.00000000E+00  0.00000000E+00
  0.00000000E+00  0.00000000E+00  0.00000000E+00
  0.00000000E+00  0.00000000E+00  0.00000000E+00
  0.00000000E+00  0.00000000E+00  0.00000000E+00
  0.00000000E+00  0.00000000E+00  0.00000000E+00
  0.00000000E+00  0.00000000E+00  0.00000000E+00
  0.00000000E+00  0.00000000E+00  0.00000000E+00
  0.00000000E+00  0.00000000E+00  0.00000000E+00
  0.00000000E+00  0.00000000E+00  0.00000000E+00
  0.00000000E+00  0.00000000E+00  0.00000000E+00
  0.00000000E+00  0.00000000E+00  0.00000000E+00
  0.00000000E+00  0.00000000E+00  0.00000000E+00
  0.00000000E+00  0.00000000E+00  0.00000000E+00
  0.00000000E+00  0.00000000E+00  0.00000000E+00
  0.00000000E+00  0.00000000E+00  0.00000000E+00
  0.00000000E+00  0.00000000E+00  0.00000000E+00
  0.00000000E+00  0.00000000E+00  0.00000000E+00
  0.00000000E+00  0.00000000E+00  0.00000000E+00
  0.00000000E+00  0.00000000E+00  0.00000000E+00
  0.00000000E+00  0.00000000E+00  0.00000000E+00
  0.00000000E+00  0.00000000E+00  0.00000000E+00
  0.00000000E+00  0.00000000E+00  0.00000000E+00
  0.00000000E+00  0.00000000E+00  0.00000000E+00
  0.00000000E+00  0.00000000E+00  0.00000000E+00
  0.00000000E+00  0.00000000E+00  0.00000000E+00
  0.00000000E+00  0.00000000E+00  0.00000000E+00
  0.00000000E+00  0.00000000E+00  0.00000000E+00
  0.00000000E+00  0.00000000E+00  0.00000000E+00
  0.00000000E+00  0.00000000E+00  0.00000000E+00
  0.00000000E+00  0.00000000E+00  0.00000000E+00
  0.00000000E+00  0.00000000E+00  0.00000000E+00
  0.00000000E+00  0.00000000E+00  0.00000000E+00
  0.00000000E+00  0.00000000E+00  0.00000000E+00
  0.00000000E+00  0.00000000E+00  0.00000000E+00
  0.00000000E+00  0.00000000E+00  0.00000000E+00
  0.00000000E+00  0.00000000E+00  0.00000000E+00
  0.00000000E+00  0.00000000E+00  0.00000000E+00
  0.00000000E+00  0.00000000E+00  0.00000000E+00
  0.00000000E+00  0.00000000E+00  0.00000000E+00
  0.00000000E+00  0.00000000E+00  0.00000000E+00
  0.00000000E+00  0.00000000E+00  0.00000000E+00
  0.00000000E+00  0.00000000E+00  0.00000000E+00
  0.00000000E+00  0.00000000E+00  0.00000000E+00
  0.00000000E+00  0.00000000E+00  0.00000000E+00
  0.00000000E+00  0.00000000E+00  0.00000000E+00
  0.00000000E+00  0.00000000E+00  0.00000000E+00
  0.00000000E+00  0.00000000E+00  0.00000000E+00
  0.00000000E+00  0.00000000E+00  0.00000000E+00
  0.00000000E+00  0.00000000E+00  0.00000000E+00
  0.00000000E+00  0.00000000E+00  0.00000000E+00
  0.00000000E+00  0.00000000E+00  0.00000000E+00
  0.00000000E+00  0.00000000E+00  0.00000000E+00
  0.00000000E+00  0.00000000E+00  0.00000000E+00
  0.00000000E+00  0.00000000E+00  0.00000000E+00
  0.00000000E+00  0.00000000E+00  0.00000000E+00
  0.00000000E+00  0.00000000E+00  0.00000000E+00
  0.00000000E+00  0.00000000E+00  0.00000000E+00
  0.00000000E+00  0.00000000E+00  0.00000000E+00
  0.00000000E+00  0.00000000E+00  0.00000000E+00
  0.00000000E+00  0.00000000E+00  0.00000000E+00
  0.00000000E+00  0.00000000E+00  0.00000000E+00
  0.00000000E+00  0.00000000E+00  0.00000000E+00
  0.00000000E+00  0.00000000E+00  0.00000000E+00
  0.00000000E+00  0.00000000E+00  0.00000000E+00
  0.00000000E+00  0.00000000E+00  0.00000000E+00
  0.00000000E+00  0.00000000E+00  0.00000000E+00
  0.00000000E+00  0.00000000E+00  0.00000000E+00
  0.00000000E+00  0.00000000E+00  0.00000000E+00
  0.00000000E+00  0.00000000E+00  0.00000000E+00
  0.00000000E+00  0.00000000E+00  0.00000000E+00
  0.00000000E+00  0.00000000E+00  0.00000000E+00
  0.00000000E+00  0.00000000E+00  0.00000000E+00
  0.00000000E+00  0.00000000E+00  0.00000000E+00
  0.00000000E+00  0.00000000E+00  0.00000000E+00
  0.00000000E+00  0.00000000E+00  0.00000000E+00
  0.00000000E+00  0.00000000E+00  0.00000000E+00
  0.00000000E+00  0.00000000E+00  0.00000000E+00
  0.00000000E+00  0.00000000E+00  0.00000000E+00
  0.00000000E+00  0.00000000E+00  0.00000000E+00
  0.00000000E+00  0.00000000E+00  0.00000000E+00
  0.00000000E+00  0.00000000E+00  0.00000000E+00
  0.00000000E+00  0.00000000E+00  0.00000000E+00
  0.00000000E+00  0.00000000E+00  0.00000000E+00
  0.00000000E+00  0.00000000E+00  0.00000000E+00
  0.00000000E+00  0.00000000E+00  0.00000000E+00
  0.00000000E+00  0.00000000E+00  0.00000000E+00
  0.00000000E+00  0.00000000E+00  0.00000000E+00
  0.00000000E+00  0.00000000E+00  0.00000000E+00
  0.00000000E+00  0.00000000E+00  0.00000000E+00
  0.00000000E+00  0.00000000E+00  0.00000000E+00
  0.00000000E+00  0.00000000E+00  0.00000000E+00
  0.00000000E+00  0.00000000E+00  0.00000000E+00
  0.00000000E+00  0.00000000E+00  0.00000000E+00
  0.00000000E+00  0.00000000E+00  0.00000000E+00
  0.00000000E+00  0.00000000E+00  0.00000000E+00
  0.00000000E+00  0.00000000E+00  0.00000000E+00
  0.00000000E+00  0.00000000E+00  0.00000000E+00
  0.00000000E+00  0.00000000E+00  0.00000000E+00
  0.00000000E+00  0.00000000E+00  0.00000000E+00
  0.00000000E+00  0.00000000E+00  0.00000000E+00
  0.00000000E+00  0.00000000E+00  0.00000000E+00
  0.00000000E+00  0.00000000E+00  0.00000000E+00
  0.00000000E+00  0.00000000E+00  0.00000000E+00
  0.00000000E+00  0.00000000E+00  0.00000000E+00
  0.00000000E+00  0.00000000E+00  0.00000000E+00
  0.00000000E+00  0.00000000E+00  0.00000000E+00
  0.00000000E+00  0.00000000E+00  0.00000000E+00
  0.00000000E+00  0.00000000E+00  0.00000000E+00
  0.00000000E+00  0.00000000E+00  0.00000000E+00
  0.00000000E+00  0.00000000E+00  0.00000000E+00
  0.00000000E+00  0.00000000E+00  0.00000000E+00
  0.00000000E+00  0.00000000E+00  0.00000000E+00
  0.00000000E+00  0.00000000E+00  0.00000000E+00
  0.00000000E+00  0.00000000E+00  0.00000000E+00
  0.00000000E+00  0.00000000E+00  0.00000000E+00
  0.00000000E+00  0.00000000E+00  0.00000000E+00
  0.00000000E+00  0.00000000E+00  0.00000000E+00
  0.00000000E+00  0.00000000E+00  0.00000000E+00
