K-Point Grid
0
Monkhorst Pack
5 2 3
0 0 0

