Li Si
1.0
  8.427707337009   0.000000000000   0.000000000000
  0.000000000000  19.359032019840   0.000000000000
  0.000000000000   0.000000000000  14.048922767823
Li Si
 95  56
Selective dynamics
Direct
  0.845409766854   0.250000000000   0.340674525258  T T T
  0.345409766854   0.250000000000   0.159325474742  T T T
  0.154590233146   0.750000000000   0.659325474742  T T T
  0.654590233146   0.750000000000   0.840674525258  T T T
  0.886883572684   0.250000000000   0.133419240888  T T T
  0.386883572684   0.250000000000   0.366580759112  T T T
  0.113116427316   0.750000000000   0.866580759112  T T T
  0.613116427316   0.750000000000   0.633419240888  T T T
  0.624756350482   0.165716853879   0.159910516262  T T T
  0.124756350482   0.334283146121   0.340089483738  T T T
  0.375243649518   0.665716853879   0.840089483738  T T T
  0.875243649518   0.834283146121   0.659910516262  T T T
  0.375243649518   0.834283146121   0.840089483738  T T T
  0.875243649518   0.665716853879   0.659910516262  T T T
  0.624756350482   0.334283146121   0.159910516262  T T T
  0.124756350482   0.165716853879   0.340089483738  T T T
  0.129402179934   0.973698558694   0.434411779546  T T T
  0.629402179934   0.526301441306   0.065588220454  T T T
  0.870597820066   0.473698558694   0.565588220454  T T T
  0.370597820066   0.026301441306   0.934411779546  T T T
  0.870597820066   0.026301441306   0.565588220454  T T T
  0.370597820066   0.473698558694   0.934411779546  T T T
  0.129402179934   0.526301441306   0.434411779546  T T T
  0.629402179934   0.973698558694   0.065588220454  T T T
  0.869379906143   0.112589991300   0.762138287957  T T T
  0.369379906143   0.387410008700   0.737861712043  T T T
  0.130620093857   0.612589991300   0.237861712043  T T T
  0.630620093857   0.887410008700   0.262138287957  T T T
  0.130620093857   0.887410008700   0.237861712043  T T T
  0.630620093857   0.612589991300   0.262138287957  T T T
  0.869379906143   0.387410008700   0.762138287957  T T T
  0.369379906143   0.112589991300   0.737861712043  T T T
  0.133047802378   0.995419010575   0.065933571309  T T T
  0.633047802378   0.504580989425   0.434066428691  T T T
  0.866952197622   0.495419010575   0.934066428691  T T T
  0.366952197622   0.004580989425   0.565933571309  T T T
  0.866952197622   0.004580989425   0.934066428691  T T T
  0.366952197622   0.495419010575   0.565933571309  T T T
  0.133047802378   0.504580989425   0.065933571309  T T T
  0.633047802378   0.995419010575   0.434066428691  T T T
  0.128963472399   0.145848574981   0.137842259789  T T T
  0.628963472399   0.354151425019   0.362157740211  T T T
  0.871036527601   0.645848574981   0.862157740211  T T T
  0.371036527601   0.854151425019   0.637842259789  T T T
  0.871036527601   0.854151425019   0.862157740211  T T T
  0.371036527601   0.645848574981   0.637842259789  T T T
  0.128963472399   0.354151425019   0.137842259789  T T T
  0.628963472399   0.145848574981   0.362157740211  T T T
  0.629254760521   0.031983747220   0.244424882934  T T T
  0.129254760521   0.468016252780   0.255575117066  T T T
  0.370745239479   0.531983747220   0.755575117066  T T T
  0.870745239479   0.968016252780   0.744424882934  T T T
  0.370745239479   0.968016252780   0.755575117066  T T T
  0.870745239479   0.531983747220   0.744424882934  T T T
  0.629254760521   0.468016252780   0.244424882934  T T T
  0.129254760521   0.031983747220   0.255575117066  T T T
  0.359570328011   0.330286908991   0.971232668913  T T T
  0.859570328011   0.169713091009   0.528767331087  T T T
  0.640429671989   0.830286908991   0.028767331087  T T T
  0.140429671989   0.669713091009   0.471232668913  T T T
  0.640429671989   0.669713091009   0.028767331087  T T T
  0.140429671989   0.830286908991   0.471232668913  T T T
  0.359570328011   0.169713091009   0.971232668913  T T T
  0.859570328011   0.330286908991   0.528767331087  T T T
  0.632857892988   0.311222823663   0.662403594570  T T T
  0.132857892988   0.188777176337   0.837596405430  T T T
  0.367142107012   0.811222823663   0.337596405430  T T T
  0.867142107012   0.688777176337   0.162403594570  T T T
  0.367142107012   0.688777176337   0.337596405430  T T T
  0.867142107012   0.811222823663   0.162403594570  T T T
  0.632857892988   0.188777176337   0.662403594570  T T T
  0.132857892988   0.311222823663   0.837596405430  T T T
  0.889354975285   0.813001792463   0.343837763723  T T T
  0.389354975285   0.686998207537   0.156162236277  T T T
  0.110645024715   0.313001792463   0.656162236277  T T T
  0.610645024715   0.186998207537   0.843837763723  T T T
  0.110645024715   0.186998207537   0.656162236277  T T T
  0.610645024715   0.313001792463   0.843837763723  T T T
  0.889354975285   0.686998207537   0.343837763723  T T T
  0.389354975285   0.813001792463   0.156162236277  T T T
  0.655363961900   0.112296351476   0.995224130233  T T T
  0.155363961900   0.387703648524   0.504775869767  T T T
  0.344636038100   0.612296351476   0.004775869767  T T T
  0.844636038100   0.887703648524   0.495224130233  T T T
  0.344636038100   0.887703648524   0.004775869767  T T T
  0.844636038100   0.612296351476   0.495224130233  T T T
  0.655363961900   0.387703648524   0.995224130233  T T T
  0.155363961900   0.112296351476   0.504775869767  T T T
  0.999765850171   0.125578165251   0.971973669712  T T T
  0.000234149829   0.625578165251   0.028026330288  T T T
  0.500234149829   0.874421834749   0.471973669712  T T T
  0.000234149829   0.874421834749   0.028026330288  T T T
  0.500234149829   0.625578165251   0.471973669712  T T T
  0.999765850171   0.374421834749   0.971973669712  T T T
  0.499765850171   0.125578165251   0.528026330288  T T T
  0.865422882380   0.250000000000   0.929638434418  T T T
  0.365422882380   0.250000000000   0.570361565582  T T T
  0.134577117620   0.750000000000   0.070361565582  T T T
  0.634577117620   0.750000000000   0.429638434418  T T T
  0.870142663871   0.250000000000   0.760116175774  T T T
  0.370142663871   0.250000000000   0.739883824226  T T T
  0.129857336129   0.750000000000   0.239883824226  T T T
  0.629857336129   0.750000000000   0.260116175774  T T T
  0.617935058249   0.250000000000   0.012342406118  T T T
  0.117935058249   0.250000000000   0.487657593882  T T T
  0.382064941751   0.750000000000   0.987657593882  T T T
  0.882064941751   0.750000000000   0.512342406118  T T T
  0.115717938460   0.250000000000   0.007868894777  T T T
  0.615717938460   0.250000000000   0.492131105223  T T T
  0.884282061540   0.750000000000   0.992131105223  T T T
  0.384282061540   0.750000000000   0.507868894777  T T T
  0.377215915537   0.366461516825   0.251415514783  T T T
  0.877215915537   0.133538483175   0.248584485217  T T T
  0.622784084463   0.866461516825   0.748584485217  T T T
  0.122784084463   0.633538483175   0.751415514783  T T T
  0.622784084463   0.633538483175   0.748584485217  T T T
  0.122784084463   0.866461516825   0.751415514783  T T T
  0.377215915537   0.133538483175   0.251415514783  T T T
  0.877215915537   0.366461516825   0.248584485217  T T T
  0.394271173309   0.434183095820   0.112134482887  T T T
  0.894271173309   0.065816904180   0.387865517113  T T T
  0.605728826691   0.934183095820   0.887865517113  T T T
  0.105728826691   0.565816904180   0.612134482887  T T T
  0.605728826691   0.565816904180   0.887865517113  T T T
  0.105728826691   0.934183095820   0.612134482887  T T T
  0.394271173309   0.065816904180   0.112134482887  T T T
  0.894271173309   0.434183095820   0.387865517113  T T T
  0.382126560633   0.550834462801   0.165531609371  T T T
  0.882126560633   0.949165537199   0.334468390629  T T T
  0.617873439367   0.050834462801   0.834468390629  T T T
  0.117873439367   0.449165537199   0.665531609371  T T T
  0.617873439367   0.449165537199   0.834468390629  T T T
  0.117873439367   0.050834462801   0.665531609371  T T T
  0.382126560633   0.949165537199   0.165531609371  T T T
  0.882126560633   0.550834462801   0.334468390629  T T T
  0.380041530515   0.553709788586   0.332737082955  T T T
  0.880041530515   0.946290211414   0.167262917045  T T T
  0.619958469485   0.053709788586   0.667262917045  T T T
  0.119958469485   0.446290211414   0.832737082955  T T T
  0.619958469485   0.446290211414   0.667262917045  T T T
  0.119958469485   0.053709788586   0.832737082955  T T T
  0.380041530515   0.946290211414   0.332737082955  T T T
  0.880041530515   0.553709788586   0.167262917045  T T T
  0.368767328760   0.438418842513   0.386819149392  T T T
  0.868767328760   0.061581157487   0.113180850608  T T T
  0.631232671240   0.938418842513   0.613180850608  T T T
  0.131232671240   0.561581157487   0.886819149392  T T T
  0.631232671240   0.561581157487   0.613180850608  T T T
  0.131232671240   0.938418842513   0.886819149392  T T T
  0.368767328760   0.061581157487   0.386819149392  T T T
  0.868767328760   0.438418842513   0.113180850608  T T T
