# REAX potential for high energy P_doped_diamond systems
# Title

# Intialization
units		real
dimension	3
boundary	p p p
atom_style	charge

# Atom Definition
read_data	data.P_doped_diamond
replicate	1 1 1

# Mass Definition
mass 1 12.0107 # C
mass 2 30.9738 # P

# Potential Definition
pair_style	reax/c lmp_control
pair_coeff	* * ffield.reax.CHOSiAlLiFPB C P

neighbor	2 bin
neigh_modify	every 10 delay 0 check no

# output
thermo_style	one #custom step etotal temp lx vol press
thermo		100

# relax structure, 0 K
fix			f1 all qeq/reax 1 0.0 10.0 1e-6 reax/c
fix			f2 all box/relax iso 0.0
minimize	1.0e-10 0.0 1000 100000
unfix		f1
unfix		f2

reset_timestep 	0

# initial velocity settings
velocity	all create 273.0 4928459 rot yes mom yes dist gaussian

# berendsen thermostat (from 273.0 K to 1173.0 K)
#fix		1 all nve
fix		2 all qeq/reax 1 0.0 10.0 1e-6 reax/c
#fix		3 all temp/berendsen 273.0 1173.0 100.0 # damping constant, 100 fs = 0.1 ps

#fix		4 all reax/c/bonds 100 bonds.reaxc
#fix		5 all reax/c/species 100 1 100 species.reaxc

# real unit: force = Kcal/mole-Angstrom
# 69.4786 pN = 1 kcal/mol Angstrom
# 1 Kcal/mole = 43.36 meV
variable	gravity   equal  -(1/69.4786)*10^12*9.81/1000*12.0107/(6.0221*10^23)
#
region		region_fix block INF INF INF INF INF 8.0
group		group_fix region region_fix
group		group_move subtract all group_fix
#
fix			fix_fix group_fix setforce 0.0 0.0 0.0
fix			fix_move group_move nvt temp 273.0 1173.0 100.0 # damping constant, 100 fs = 0.1 ps
#
fix			fix_add_gravity group_move addforce 0.0 0.0 v_gravity

# E-field component values (electric field units) (electric field = volts/Angstrom)
variable	va equal 1.0*10^-10
fix			fix_efield group_move efield 0.0 0.0 v_va

timestep	0.25 # 0.25 fs

# ovito settings
dump		d1 all cfg 100 cfg/run.*.cfg mass type xs ys zs id type q
dump_modify	d1 element C P

# gnuplot settings
variable	energy equal etotal
variable	temperature equal temp
fix			fout1 all ave/time 1 100 100 v_energy v_temperature file out_energy.txt

# Run the simulation
run			400000 # 0.25 * 400000 = 1000.0 ps = 1 ns
