Li Si                                   
   1.00000000000000     
     9.2473560730689996    0.0000000000000000    0.0000000000000000
     0.0000000000000000    9.2473560730689996    0.0000000000000000
     0.0000000000000000    0.0000000000000000    5.6806048771880002
   Li   Si
    15    16
Selective dynamics
Direct
  0.8647897191383661  0.8283539620456193  0.6909783518093415   T   T   T
  0.1443543119621566  0.6658500921045400  0.6874167752521696   T   T   T
  0.5776600127038247  0.8807503144480699  0.4426867913986388   T   T   T
  0.9186601074973731  0.1122188625012979  0.9381224587900091   T   T   T
  0.6322970143089401  0.6715562977572602  0.8010548357807573   T   T   T
  0.3672955791524962  0.8259673900767067  0.8070114079244580   T   T   T
  0.9247302866847860  0.6157644162234510  0.0591135089550776   T   T   T
  0.5708412527771685  0.4068032681685315  0.5580669798158728   T   T   T
  0.3623025456029957  0.3341043192237337  0.1987892735976210   T   T   T
  0.6323740896923820  0.1721212783231610  0.1927385079739785   T   T   T
  0.0789564030465578  0.3861946377146941  0.9414862308615349   T   T   T
  0.1357767813356158  0.1683479883661136  0.3076737026790529   T   T   T
  0.8619718858566435  0.3307141196440663  0.3065826008556682   T   T   T
  0.4193547291851037  0.1138329776744231  0.5568010681557902   T   T   T
  0.0833611279873465  0.8842498637205519  0.0595487280208017   T   T   T
  0.2962660636517067  0.3585358509356208  0.6554652346313791   T   T   T
  0.6998810839326332  0.1438999147714733  0.6487349487351605   T   T   T
  0.6096878332606289  0.9544147852437436  0.9009171339888368   T   T   T
  0.8891643941803209  0.0476105889868627  0.4031651019746893   T   T   T
  0.2023132104594683  0.1390483108642864  0.8484198535693640   T   T   T
  0.7956555966231659  0.3614335245568226  0.8448973750709861   T   T   T
  0.8919658895472157  0.5478936427954744  0.5946645569994269   T   T   T
  0.6096642019597708  0.4546062516301612  0.0959425543996189   T   T   T
  0.7974848081772168  0.8604337462887560  0.1509700473817944   T   T   T
  0.2098973352570980  0.6354545343146353  0.1628793963733035   T   T   T
  0.1096275757009678  0.4490072465141116  0.4034827853236225   T   T   T
  0.3906730966328996  0.5458686400493451  0.9034550316394190   T   T   T
  0.7046440584757756  0.6406881240401238  0.3455758815754564   T   T   T
  0.3004632487813633  0.8538254520555426  0.3536947262804139   T   T   T
  0.3880825890035402  0.0442622889894447  0.0996332462019838   T   T   T
  0.1100796332074730  0.9516944081073790  0.5961643279537762   T   T   T
 
  0.00000000E+00  0.00000000E+00  0.00000000E+00
  0.00000000E+00  0.00000000E+00  0.00000000E+00
  0.00000000E+00  0.00000000E+00  0.00000000E+00
  0.00000000E+00  0.00000000E+00  0.00000000E+00
  0.00000000E+00  0.00000000E+00  0.00000000E+00
  0.00000000E+00  0.00000000E+00  0.00000000E+00
  0.00000000E+00  0.00000000E+00  0.00000000E+00
  0.00000000E+00  0.00000000E+00  0.00000000E+00
  0.00000000E+00  0.00000000E+00  0.00000000E+00
  0.00000000E+00  0.00000000E+00  0.00000000E+00
  0.00000000E+00  0.00000000E+00  0.00000000E+00
  0.00000000E+00  0.00000000E+00  0.00000000E+00
  0.00000000E+00  0.00000000E+00  0.00000000E+00
  0.00000000E+00  0.00000000E+00  0.00000000E+00
  0.00000000E+00  0.00000000E+00  0.00000000E+00
  0.00000000E+00  0.00000000E+00  0.00000000E+00
  0.00000000E+00  0.00000000E+00  0.00000000E+00
  0.00000000E+00  0.00000000E+00  0.00000000E+00
  0.00000000E+00  0.00000000E+00  0.00000000E+00
  0.00000000E+00  0.00000000E+00  0.00000000E+00
  0.00000000E+00  0.00000000E+00  0.00000000E+00
  0.00000000E+00  0.00000000E+00  0.00000000E+00
  0.00000000E+00  0.00000000E+00  0.00000000E+00
  0.00000000E+00  0.00000000E+00  0.00000000E+00
  0.00000000E+00  0.00000000E+00  0.00000000E+00
  0.00000000E+00  0.00000000E+00  0.00000000E+00
  0.00000000E+00  0.00000000E+00  0.00000000E+00
  0.00000000E+00  0.00000000E+00  0.00000000E+00
  0.00000000E+00  0.00000000E+00  0.00000000E+00
  0.00000000E+00  0.00000000E+00  0.00000000E+00
  0.00000000E+00  0.00000000E+00  0.00000000E+00
