Li Si                                   
   1.00000000000000     
     8.4277073370090001    0.0000000000000000    0.0000000000000000
     0.0000000000000000   19.3590320198400008    0.0000000000000000
     0.0000000000000000    0.0000000000000000   14.0489227678230009
   Li   Si
    95    56
Selective dynamics
Direct
  0.8484833844794627  0.2500000000000000  0.3419160203502407   T   T   T
  0.3490452968061986  0.2500000000000000  0.1578350997764310   T   T   T
  0.1361797017540378  0.7500000000000000  0.6498830905328834   T   T   T
  0.6458871324787505  0.7500000000000000  0.8272717529395045   T   T   T
  0.8862563657684801  0.2500000000000000  0.1330790234939419   T   T   T
  0.3859218744364055  0.2500000000000000  0.3668500212418718   T   T   T
  0.1131139133153153  0.7500000000000000  0.8646652739949003   T   T   T
  0.6249880418056518  0.1655695323508508  0.1599493692183856   T   T   T
  0.1248937265382269  0.3343624783307478  0.3406656197837097   T   T   T
  0.3722764658708447  0.6643230267184944  0.8428488053141129   T   T   T
  0.8568296786645830  0.8270200714286474  0.6609126784797058   T   T   T
  0.3722764658708447  0.8356769732815056  0.8428488053141129   T   T   T
  0.8568296786645830  0.6729799285713526  0.6609126784797058   T   T   T
  0.6249880418056518  0.3344304676491492  0.1599493692183856   T   T   T
  0.1248937265382269  0.1656375216692521  0.3406656197837097   T   T   T
  0.1284350269096868  0.9738782389883643  0.4344870737291899   T   T   T
  0.6294885352389487  0.5261467263079370  0.0667945830583018   T   T   T
  0.8712328809081364  0.4740081308151997  0.5656520772325857   T   T   T
  0.3693101055318517  0.0270777816026242  0.9338862784128513   T   T   T
  0.8712328809081364  0.0259918691848003  0.5656520772325857   T   T   T
  0.3693101055318517  0.4729222183973757  0.9338862784128513   T   T   T
  0.1284350269096868  0.5261217610116357  0.4344870737291899   T   T   T
  0.6294885352389487  0.9738532736920630  0.0667945830583018   T   T   T
  0.8693801085685373  0.1123748634082060  0.7615811790619994   T   T   T
  0.3684778592672457  0.3876487765022259  0.7379464416993681   T   T   T
  0.1313424218587508  0.6127484060067169  0.2372932157266939   T   T   T
  0.6316872002296505  0.8874838505057909  0.2618078824343265   T   T   T
  0.1313424218587508  0.8872515939932831  0.2372932157266939   T   T   T
  0.6316872002296505  0.6125161494942091  0.2618078824343265   T   T   T
  0.8693801085685373  0.3876251365917939  0.7615811790619994   T   T   T
  0.3684778592672457  0.1123512234977740  0.7379464416993681   T   T   T
  0.1330446944455660  0.9956530139690184  0.0654471072152596   T   T   T
  0.6334527557269518  0.5046707726517421  0.4351393421767087   T   T   T
  0.8668941806841245  0.4946664300297677  0.9334831771343360   T   T   T
  0.3674798940904740  0.0034429383156825  0.5656150454775256   T   T   T
  0.8668941806841245  0.0053335699702323  0.9334831771343360   T   T   T
  0.3674798940904740  0.4965570616843175  0.5656150454775256   T   T   T
  0.1330446944455660  0.5043469860309816  0.0654471072152596   T   T   T
  0.6334527557269518  0.9953292273482579  0.4351393421767087   T   T   T
  0.1293665052523384  0.1466780373463339  0.1380306473074073   T   T   T
  0.6290711199857563  0.3533563341283824  0.3621616931074491   T   T   T
  0.8677814808162778  0.6470939050897740  0.8626895886635971   T   T   T
  0.3816201484833896  0.8426582769757687  0.6432376428456795   T   T   T
  0.8677814808162778  0.8529060949102260  0.8626895886635971   T   T   T
  0.3816201484833896  0.6573417230242313  0.6432376428456795   T   T   T
  0.1293665052523384  0.3533219626536658  0.1380306473074073   T   T   T
  0.6290711199857563  0.1466436658716177  0.3621616931074491   T   T   T
  0.6295855243719384  0.0321793407566022  0.2452819740389568   T   T   T
  0.1290961188799300  0.4678956502419463  0.2553868041506065   T   T   T
  0.3700415488223095  0.5331254413639129  0.7541028673024797   T   T   T
  0.8717019289094067  0.9668109574252411  0.7439720911005170   T   T   T
  0.3700415488223095  0.9668745586360871  0.7541028673024797   T   T   T
  0.8717019289094067  0.5331890425747589  0.7439720911005170   T   T   T
  0.6295855243719384  0.4678206592433978  0.2452819740389568   T   T   T
  0.1290961188799300  0.0321043497580538  0.2553868041506065   T   T   T
  0.3599708939625392  0.3300377714075535  0.9702691983140935   T   T   T
  0.8582186494468109  0.1696871573361033  0.5294973366796570   T   T   T
  0.6401265495120303  0.8295968018687178  0.0245498634168676   T   T   T
  0.1487244706394223  0.6694393298140302  0.4683044002220232   T   T   T
  0.6401265495120303  0.6704031981312822  0.0245498634168676   T   T   T
  0.1487244706394223  0.8305606701859698  0.4683044002220232   T   T   T
  0.3599708939625392  0.1699622285924466  0.9702691983140935   T   T   T
  0.8582186494468109  0.3303128426638968  0.5294973366796570   T   T   T
  0.6315397729405795  0.3111873920672259  0.6629710514850398   T   T   T
  0.1318402270635934  0.1887447805721551  0.8373464535963805   T   T   T
  0.3710136004060280  0.8109604474446930  0.3370410373024484   T   T   T
  0.8655370672827294  0.6887171307006654  0.1613689624090316   T   T   T
  0.3710136004060280  0.6890395525553070  0.3370410373024484   T   T   T
  0.8655370672827294  0.8112828692993346  0.1613689624090316   T   T   T
  0.6315397729405795  0.1888126079327741  0.6629710514850398   T   T   T
  0.1318402270635934  0.3112552194278448  0.8373464535963805   T   T   T
  0.8935447255977349  0.8131969402438938  0.3434004796379014   T   T   T
  0.3929224165439040  0.6870663746551910  0.1557127885878990   T   T   T
  0.1101376717449757  0.3132550890449827  0.6564718119526175   T   T   T
  0.6105807952477251  0.1876241805840183  0.8440452924234554   T   T   T
  0.1101376717449757  0.1867449109550173  0.6564718119526175   T   T   T
  0.6105807952477251  0.3123758194159817  0.8440452924234554   T   T   T
  0.8935447255977349  0.6868030597561062  0.3434004796379014   T   T   T
  0.3929224165439040  0.8129336253448090  0.1557127885878990   T   T   T
  0.6557122456576856  0.1127740983761861  0.9953714127573752   T   T   T
  0.1549968477939244  0.3877710349503714  0.5051876113278960   T   T   T
  0.3442098387304383  0.6116909065876629  0.0059623787173254   T   T   T
  0.8492455809002585  0.8865523756592760  0.4966844175738470   T   T   T
  0.3442098387304383  0.8883090934123371  0.0059623787173254   T   T   T
  0.8492455809002585  0.6134476243407240  0.4966844175738470   T   T   T
  0.6557122456576856  0.3872259016238139  0.9953714127573752   T   T   T
  0.1549968477939244  0.1122289650496286  0.5051876113278960   T   T   T
  0.0003207844662194  0.1257060819812606  0.9718562118681886   T   T   T
  0.4991391926278193  0.3744681946501209  0.5282351207905283   T   T   T
  0.0004223299834815  0.6256973059052862  0.0277892910948428   T   T   T
  0.5003248453359098  0.8738340015618649  0.4740348558922495   T   T   T
  0.0004223299834815  0.8743026940947138  0.0277892910948428   T   T   T
  0.5003248453359098  0.6261659984381351  0.4740348558922495   T   T   T
  0.0003207844662194  0.3742939180187393  0.9718562118681886   T   T   T
  0.4991391926278193  0.1255318053498790  0.5282351207905283   T   T   T
  0.8649023719937060  0.2500000000000000  0.9299452359344964   T   T   T
  0.3641723552234952  0.2500000000000000  0.5704619580541633   T   T   T
  0.1350261894331464  0.7500000000000000  0.0701314708270194   T   T   T
  0.6420381225078615  0.7500000000000000  0.4345507082649814   T   T   T
  0.8697095308640437  0.2500000000000000  0.7602993151059321   T   T   T
  0.3690047103221215  0.2500000000000000  0.7398297608820694   T   T   T
  0.1319533162356582  0.7500000000000000  0.2393417706608146   T   T   T
  0.6335857485583841  0.7500000000000000  0.2632701338714581   T   T   T
  0.6175771031578882  0.2500000000000000  0.0128449563312641   T   T   T
  0.1166380471427125  0.2500000000000000  0.4880792070693438   T   T   T
  0.3819998479730454  0.7500000000000000  0.9873292400612571   T   T   T
  0.8956808078223921  0.7500000000000000  0.5087139270813261   T   T   T
  0.1157027911189263  0.2500000000000000  0.0075349057899357   T   T   T
  0.6145757663153372  0.2500000000000000  0.4925193059162132   T   T   T
  0.8850170794918184  0.7500000000000000  0.9916185049269195   T   T   T
  0.3886180691971514  0.7500000000000000  0.5052774823335114   T   T   T
  0.3771959987659047  0.3663066239370634  0.2516261961256711   T   T   T
  0.8776227659738195  0.1338324884842263  0.2486199749088171   T   T   T
  0.6205906643447421  0.8688916265292443  0.7535472102395513   T   T   T
  0.1187250330213983  0.6350053682425740  0.7500644930206972   T   T   T
  0.6205906643447421  0.6311083734707557  0.7535472102395513   T   T   T
  0.1187250330213983  0.8649946317574260  0.7500644930206972   T   T   T
  0.3771959987659047  0.1336933760629367  0.2516261961256711   T   T   T
  0.8776227659738195  0.3661675115157737  0.2486199749088171   T   T   T
  0.3940747111643428  0.4338904499315646  0.1122580932088519   T   T   T
  0.8940921632996022  0.0660985867567302  0.3877871564299869   T   T   T
  0.6043375753452920  0.9376032132468936  0.8896686519883485   T   T   T
  0.1066578818855738  0.5671677328335237  0.6118599393657198   T   T   T
  0.6043375753452920  0.5623967867531064  0.8896686519883485   T   T   T
  0.1066578818855738  0.9328322671664763  0.6118599393657198   T   T   T
  0.3940747111643428  0.0661095500684355  0.1122580932088519   T   T   T
  0.8940921632996022  0.4339014132432698  0.3877871564299869   T   T   T
  0.3819418497269345  0.5504714286830369  0.1662802839004290   T   T   T
  0.8818057073668774  0.9493712291349451  0.3348157045144708   T   T   T
  0.6165571828191889  0.0532807998818461  0.8342947541139414   T   T   T
  0.1187934373048305  0.4503098069839884  0.6650534445281721   T   T   T
  0.6165571828191889  0.4467192001181539  0.8342947541139414   T   T   T
  0.1187934373048305  0.0496901930160117  0.6650534445281721   T   T   T
  0.3819418497269345  0.9495285713169631  0.1662802839004290   T   T   T
  0.8818057073668774  0.5506287708650549  0.3348157045144708   T   T   T
  0.3804087776022291  0.5536833891630626  0.3334055377537949   T   T   T
  0.8809019852585581  0.9467301596567529  0.1676241639447201   T   T   T
  0.6198008884340502  0.0532978985500499  0.6670585542574244   T   T   T
  0.1191415679692849  0.4468381278936304  0.8322847885344992   T   T   T
  0.6198008884340502  0.4467021014499501  0.6670585542574244   T   T   T
  0.1191415679692849  0.0531618721063696  0.8322847885344992   T   T   T
  0.3804087776022291  0.9463166108369374  0.3334055377537949   T   T   T
  0.8809019852585581  0.5532698403432471  0.1676241639447201   T   T   T
  0.3687710638934033  0.4383220967737607  0.3868464488986894   T   T   T
  0.8693178395383432  0.0619095136642918  0.1133229038525666   T   T   T
  0.6311298228718484  0.9376305026841291  0.6153286289731078   T   T   T
  0.1300236488132187  0.5624835092082062  0.8854462075548789   T   T   T
  0.6311298228718484  0.5623694973158709  0.6153286289731078   T   T   T
  0.1300236488132187  0.9375164907917938  0.8854462075548789   T   T   T
  0.3687710638934033  0.0616779032262393  0.3868464488986894   T   T   T
  0.8693178395383432  0.4380904863357082  0.1133229038525666   T   T   T
 
  0.00000000E+00  0.00000000E+00  0.00000000E+00
  0.00000000E+00  0.00000000E+00  0.00000000E+00
  0.00000000E+00  0.00000000E+00  0.00000000E+00
  0.00000000E+00  0.00000000E+00  0.00000000E+00
  0.00000000E+00  0.00000000E+00  0.00000000E+00
  0.00000000E+00  0.00000000E+00  0.00000000E+00
  0.00000000E+00  0.00000000E+00  0.00000000E+00
  0.00000000E+00  0.00000000E+00  0.00000000E+00
  0.00000000E+00  0.00000000E+00  0.00000000E+00
  0.00000000E+00  0.00000000E+00  0.00000000E+00
  0.00000000E+00  0.00000000E+00  0.00000000E+00
  0.00000000E+00  0.00000000E+00  0.00000000E+00
  0.00000000E+00  0.00000000E+00  0.00000000E+00
  0.00000000E+00  0.00000000E+00  0.00000000E+00
  0.00000000E+00  0.00000000E+00  0.00000000E+00
  0.00000000E+00  0.00000000E+00  0.00000000E+00
  0.00000000E+00  0.00000000E+00  0.00000000E+00
  0.00000000E+00  0.00000000E+00  0.00000000E+00
  0.00000000E+00  0.00000000E+00  0.00000000E+00
  0.00000000E+00  0.00000000E+00  0.00000000E+00
  0.00000000E+00  0.00000000E+00  0.00000000E+00
  0.00000000E+00  0.00000000E+00  0.00000000E+00
  0.00000000E+00  0.00000000E+00  0.00000000E+00
  0.00000000E+00  0.00000000E+00  0.00000000E+00
  0.00000000E+00  0.00000000E+00  0.00000000E+00
  0.00000000E+00  0.00000000E+00  0.00000000E+00
  0.00000000E+00  0.00000000E+00  0.00000000E+00
  0.00000000E+00  0.00000000E+00  0.00000000E+00
  0.00000000E+00  0.00000000E+00  0.00000000E+00
  0.00000000E+00  0.00000000E+00  0.00000000E+00
  0.00000000E+00  0.00000000E+00  0.00000000E+00
  0.00000000E+00  0.00000000E+00  0.00000000E+00
  0.00000000E+00  0.00000000E+00  0.00000000E+00
  0.00000000E+00  0.00000000E+00  0.00000000E+00
  0.00000000E+00  0.00000000E+00  0.00000000E+00
  0.00000000E+00  0.00000000E+00  0.00000000E+00
  0.00000000E+00  0.00000000E+00  0.00000000E+00
  0.00000000E+00  0.00000000E+00  0.00000000E+00
  0.00000000E+00  0.00000000E+00  0.00000000E+00
  0.00000000E+00  0.00000000E+00  0.00000000E+00
  0.00000000E+00  0.00000000E+00  0.00000000E+00
  0.00000000E+00  0.00000000E+00  0.00000000E+00
  0.00000000E+00  0.00000000E+00  0.00000000E+00
  0.00000000E+00  0.00000000E+00  0.00000000E+00
  0.00000000E+00  0.00000000E+00  0.00000000E+00
  0.00000000E+00  0.00000000E+00  0.00000000E+00
  0.00000000E+00  0.00000000E+00  0.00000000E+00
  0.00000000E+00  0.00000000E+00  0.00000000E+00
  0.00000000E+00  0.00000000E+00  0.00000000E+00
  0.00000000E+00  0.00000000E+00  0.00000000E+00
  0.00000000E+00  0.00000000E+00  0.00000000E+00
  0.00000000E+00  0.00000000E+00  0.00000000E+00
  0.00000000E+00  0.00000000E+00  0.00000000E+00
  0.00000000E+00  0.00000000E+00  0.00000000E+00
  0.00000000E+00  0.00000000E+00  0.00000000E+00
  0.00000000E+00  0.00000000E+00  0.00000000E+00
  0.00000000E+00  0.00000000E+00  0.00000000E+00
  0.00000000E+00  0.00000000E+00  0.00000000E+00
  0.00000000E+00  0.00000000E+00  0.00000000E+00
  0.00000000E+00  0.00000000E+00  0.00000000E+00
  0.00000000E+00  0.00000000E+00  0.00000000E+00
  0.00000000E+00  0.00000000E+00  0.00000000E+00
  0.00000000E+00  0.00000000E+00  0.00000000E+00
  0.00000000E+00  0.00000000E+00  0.00000000E+00
  0.00000000E+00  0.00000000E+00  0.00000000E+00
  0.00000000E+00  0.00000000E+00  0.00000000E+00
  0.00000000E+00  0.00000000E+00  0.00000000E+00
  0.00000000E+00  0.00000000E+00  0.00000000E+00
  0.00000000E+00  0.00000000E+00  0.00000000E+00
  0.00000000E+00  0.00000000E+00  0.00000000E+00
  0.00000000E+00  0.00000000E+00  0.00000000E+00
  0.00000000E+00  0.00000000E+00  0.00000000E+00
  0.00000000E+00  0.00000000E+00  0.00000000E+00
  0.00000000E+00  0.00000000E+00  0.00000000E+00
  0.00000000E+00  0.00000000E+00  0.00000000E+00
  0.00000000E+00  0.00000000E+00  0.00000000E+00
  0.00000000E+00  0.00000000E+00  0.00000000E+00
  0.00000000E+00  0.00000000E+00  0.00000000E+00
  0.00000000E+00  0.00000000E+00  0.00000000E+00
  0.00000000E+00  0.00000000E+00  0.00000000E+00
  0.00000000E+00  0.00000000E+00  0.00000000E+00
  0.00000000E+00  0.00000000E+00  0.00000000E+00
  0.00000000E+00  0.00000000E+00  0.00000000E+00
  0.00000000E+00  0.00000000E+00  0.00000000E+00
  0.00000000E+00  0.00000000E+00  0.00000000E+00
  0.00000000E+00  0.00000000E+00  0.00000000E+00
  0.00000000E+00  0.00000000E+00  0.00000000E+00
  0.00000000E+00  0.00000000E+00  0.00000000E+00
  0.00000000E+00  0.00000000E+00  0.00000000E+00
  0.00000000E+00  0.00000000E+00  0.00000000E+00
  0.00000000E+00  0.00000000E+00  0.00000000E+00
  0.00000000E+00  0.00000000E+00  0.00000000E+00
  0.00000000E+00  0.00000000E+00  0.00000000E+00
  0.00000000E+00  0.00000000E+00  0.00000000E+00
  0.00000000E+00  0.00000000E+00  0.00000000E+00
  0.00000000E+00  0.00000000E+00  0.00000000E+00
  0.00000000E+00  0.00000000E+00  0.00000000E+00
  0.00000000E+00  0.00000000E+00  0.00000000E+00
  0.00000000E+00  0.00000000E+00  0.00000000E+00
  0.00000000E+00  0.00000000E+00  0.00000000E+00
  0.00000000E+00  0.00000000E+00  0.00000000E+00
  0.00000000E+00  0.00000000E+00  0.00000000E+00
  0.00000000E+00  0.00000000E+00  0.00000000E+00
  0.00000000E+00  0.00000000E+00  0.00000000E+00
  0.00000000E+00  0.00000000E+00  0.00000000E+00
  0.00000000E+00  0.00000000E+00  0.00000000E+00
  0.00000000E+00  0.00000000E+00  0.00000000E+00
  0.00000000E+00  0.00000000E+00  0.00000000E+00
  0.00000000E+00  0.00000000E+00  0.00000000E+00
  0.00000000E+00  0.00000000E+00  0.00000000E+00
  0.00000000E+00  0.00000000E+00  0.00000000E+00
  0.00000000E+00  0.00000000E+00  0.00000000E+00
  0.00000000E+00  0.00000000E+00  0.00000000E+00
  0.00000000E+00  0.00000000E+00  0.00000000E+00
  0.00000000E+00  0.00000000E+00  0.00000000E+00
  0.00000000E+00  0.00000000E+00  0.00000000E+00
  0.00000000E+00  0.00000000E+00  0.00000000E+00
  0.00000000E+00  0.00000000E+00  0.00000000E+00
  0.00000000E+00  0.00000000E+00  0.00000000E+00
  0.00000000E+00  0.00000000E+00  0.00000000E+00
  0.00000000E+00  0.00000000E+00  0.00000000E+00
  0.00000000E+00  0.00000000E+00  0.00000000E+00
  0.00000000E+00  0.00000000E+00  0.00000000E+00
  0.00000000E+00  0.00000000E+00  0.00000000E+00
  0.00000000E+00  0.00000000E+00  0.00000000E+00
  0.00000000E+00  0.00000000E+00  0.00000000E+00
  0.00000000E+00  0.00000000E+00  0.00000000E+00
  0.00000000E+00  0.00000000E+00  0.00000000E+00
  0.00000000E+00  0.00000000E+00  0.00000000E+00
  0.00000000E+00  0.00000000E+00  0.00000000E+00
  0.00000000E+00  0.00000000E+00  0.00000000E+00
  0.00000000E+00  0.00000000E+00  0.00000000E+00
  0.00000000E+00  0.00000000E+00  0.00000000E+00
  0.00000000E+00  0.00000000E+00  0.00000000E+00
  0.00000000E+00  0.00000000E+00  0.00000000E+00
  0.00000000E+00  0.00000000E+00  0.00000000E+00
  0.00000000E+00  0.00000000E+00  0.00000000E+00
  0.00000000E+00  0.00000000E+00  0.00000000E+00
  0.00000000E+00  0.00000000E+00  0.00000000E+00
  0.00000000E+00  0.00000000E+00  0.00000000E+00
  0.00000000E+00  0.00000000E+00  0.00000000E+00
  0.00000000E+00  0.00000000E+00  0.00000000E+00
  0.00000000E+00  0.00000000E+00  0.00000000E+00
  0.00000000E+00  0.00000000E+00  0.00000000E+00
  0.00000000E+00  0.00000000E+00  0.00000000E+00
  0.00000000E+00  0.00000000E+00  0.00000000E+00
  0.00000000E+00  0.00000000E+00  0.00000000E+00
  0.00000000E+00  0.00000000E+00  0.00000000E+00
  0.00000000E+00  0.00000000E+00  0.00000000E+00
  0.00000000E+00  0.00000000E+00  0.00000000E+00
  0.00000000E+00  0.00000000E+00  0.00000000E+00
