# NOTE: This script can be modified for different pair styles 
# See in.elastic for more info.

# we must undefine any fix ave/* fix before using reset_timestep
if "$(is_defined(fix,avp))" then "unfix avp"
reset_timestep 0

# Choose potential
# ----- Potential settings (ReaxFF)-----
pair_style	reax/c lmp_control
pair_coeff	* * ffield.reax.001.CHOSiAlLiFPB Si
fix f1 all qeq/reax 1 0.0 10.0 1e-6 reax/c

# Setup neighbor style
neighbor 1.0 nsq
neigh_modify once no every 1 delay 0 check yes

# Setup MD

timestep ${timestep}
fix 4 all nve
if "${thermostat} == 1" then &
   "fix 5 all langevin ${temp} ${temp} ${tdamp} ${seed}" &
else &
   "fix 5 all temp/berendsen ${temp} ${temp} ${tdamp}"


