Li Si                                   
   1.00000000000000     
     9.2473560730689996    0.0000000000000000    0.0000000000000000
     0.0000000000000000    9.2473560730689996    0.0000000000000000
     0.0000000000000000    0.0000000000000000    5.6806048771880002
   Li   Si
    15    16
Selective dynamics
Direct
  0.1307502790090194  0.6723399852607722  0.6926867586639951   T   T   T
  0.5841043328013097  0.8876974769165711  0.4487893298675649   T   T   T
  0.9158500362575912  0.1056455748652712  0.9374167213616854   T   T   T
  0.6568035005104215  0.6791588009026542  0.8080670457067670   T   T   T
  0.3638329711806611  0.8306452765659376  0.8068010589677823   T   T   T
  0.9215563380794162  0.6177029757966751  0.0510548167017341   T   T   T
  0.5807141224697646  0.3880281669066699  0.5565825935124056   T   T   T
  0.3622188155002331  0.3313399195728232  0.1881223711810114   T   T   T
  0.6361946144491073  0.1710436409547922  0.1914861954463534   T   T   T
  0.0783539384004023  0.3852102565387217  0.9409783505965241   T   T   T
  0.4221213151216502  0.6176259750198752  0.4427385041465423   T   T   T
  0.1342498443686243  0.1666388615233670  0.3095487546963327   T   T   T
  0.8657644719481695  0.3252696475366426  0.3091135378383737   T   T   T
  0.4183479452322247  0.1142232397613033  0.5576737003163754   T   T   T
  0.0759673665910862  0.8827043774809417  0.0570114797555543   T   T   T
  0.2976106151043211  0.3608356307830273  0.6531651327089825   T   T   T
  0.6990072041522556  0.1403724492740181  0.6534827829091083   T   T   T
  0.6085358170374748  0.9537339396384150  0.9054652772384288   T   T   T
  0.8854544967171472  0.0401026409901832  0.4128794152119206   T   T   T
  0.2016943748060230  0.1399203489479842  0.8461643164801069   T   T   T
  0.7978936615539977  0.3580340913292888  0.8446645382547773   T   T   T
  0.8906881389233497  0.5453559156031260  0.5955758504175143   T   T   T
  0.6114335215845247  0.4543444061519774  0.0948973642100977   T   T   T
  0.7958686224717706  0.8593268974348551  0.1534550365349957   T   T   T
  0.2044147983630380  0.6403121482438079  0.1509171198094580   T   T   T
  0.1104337505398871  0.4525152047988084  0.4009700096388092   T   T   T
  0.3938999466329395  0.5501189235450373  0.8987348900478742   T   T   T
  0.7046062662689474  0.6403357945108237  0.3459425480098634   T   T   T
  0.2942622734000812  0.8619174321195948  0.3496332581378556   T   T   T
  0.3890482850742447  0.0476867859421528  0.0984198749568721   T   T   T
  0.1038254335863193  0.9495367493008811  0.6036947906443367   T   T   T
 
  0.00000000E+00  0.00000000E+00  0.00000000E+00
  0.00000000E+00  0.00000000E+00  0.00000000E+00
  0.00000000E+00  0.00000000E+00  0.00000000E+00
  0.00000000E+00  0.00000000E+00  0.00000000E+00
  0.00000000E+00  0.00000000E+00  0.00000000E+00
  0.00000000E+00  0.00000000E+00  0.00000000E+00
  0.00000000E+00  0.00000000E+00  0.00000000E+00
  0.00000000E+00  0.00000000E+00  0.00000000E+00
  0.00000000E+00  0.00000000E+00  0.00000000E+00
  0.00000000E+00  0.00000000E+00  0.00000000E+00
  0.00000000E+00  0.00000000E+00  0.00000000E+00
  0.00000000E+00  0.00000000E+00  0.00000000E+00
  0.00000000E+00  0.00000000E+00  0.00000000E+00
  0.00000000E+00  0.00000000E+00  0.00000000E+00
  0.00000000E+00  0.00000000E+00  0.00000000E+00
  0.00000000E+00  0.00000000E+00  0.00000000E+00
  0.00000000E+00  0.00000000E+00  0.00000000E+00
  0.00000000E+00  0.00000000E+00  0.00000000E+00
  0.00000000E+00  0.00000000E+00  0.00000000E+00
  0.00000000E+00  0.00000000E+00  0.00000000E+00
  0.00000000E+00  0.00000000E+00  0.00000000E+00
  0.00000000E+00  0.00000000E+00  0.00000000E+00
  0.00000000E+00  0.00000000E+00  0.00000000E+00
  0.00000000E+00  0.00000000E+00  0.00000000E+00
  0.00000000E+00  0.00000000E+00  0.00000000E+00
  0.00000000E+00  0.00000000E+00  0.00000000E+00
  0.00000000E+00  0.00000000E+00  0.00000000E+00
  0.00000000E+00  0.00000000E+00  0.00000000E+00
  0.00000000E+00  0.00000000E+00  0.00000000E+00
  0.00000000E+00  0.00000000E+00  0.00000000E+00
  0.00000000E+00  0.00000000E+00  0.00000000E+00
