K-Point Grid
0
Monkhorst Pack
5 5 10
0 0 0

