Li Si
1.0
  9.247356073069   0.000000000000   0.000000000000
  0.000000000000   9.247356073069   0.000000000000
  0.000000000000   0.000000000000   5.680604877188
Li Si
 15  16
Selective dynamics
Direct
  0.135507098136   0.669723534217   0.693866576030  T T T
  0.580276465783   0.885507098136   0.443866576030  T T T
  0.919723534217   0.114492901864   0.943866576030  T T T
  0.635507098136   0.669723534217   0.806133423970  T T T
  0.364492901864   0.830276465783   0.806133423970  T T T
  0.919723534217   0.614492901864   0.056133423970  T T T
  0.580276465783   0.385507098136   0.556133423970  T T T
  0.364492901864   0.330276465783   0.193866576030  T T T
  0.635507098136   0.169723534217   0.193866576030  T T T
  0.080276465783   0.385507098136   0.943866576030  T T T
  0.419723534217   0.614492901864   0.443866576030  T T T
  0.135507098136   0.169723534217   0.306133423970  T T T
  0.864492901864   0.330276465783   0.306133423970  T T T
  0.419723534217   0.114492901864   0.556133423970  T T T
  0.080276465783   0.885507098136   0.056133423970  T T T
  0.297563039082   0.359948079565   0.653396457385  T T T
  0.702436960918   0.140051920435   0.653396457385  T T T
  0.609948079565   0.952436960918   0.903396457385  T T T
  0.890051920435   0.047563039082   0.403396457385  T T T
  0.202436960918   0.140051920435   0.846603542615  T T T
  0.797563039082   0.359948079565   0.846603542615  T T T
  0.890051920435   0.547563039082   0.596603542615  T T T
  0.609948079565   0.452436960918   0.096603542615  T T T
  0.797563039082   0.859948079565   0.153396457385  T T T
  0.202436960918   0.640051920435   0.153396457385  T T T
  0.109948079565   0.452436960918   0.403396457385  T T T
  0.390051920435   0.547563039082   0.903396457385  T T T
  0.702436960918   0.640051920435   0.346603542615  T T T
  0.297563039082   0.859948079565   0.346603542615  T T T
  0.390051920435   0.047563039082   0.096603542615  T T T
  0.109948079565   0.952436960918   0.596603542615  T T T
