Li Si                                   
   1.00000000000000     
     7.8083235237890003    0.0000000000000000    0.0000000000000000
     0.0000000000000000   14.8633665875129992    0.0000000000000000
     0.0000000000000000    0.0000000000000000    4.3291643560950002
   Li   Si
    25     8
Selective dynamics
Direct
  0.3817827892242243  0.5191446099536350  0.0000000000000000   T   T   T
  0.1567592691899789  0.0238073398762230  0.0000000000000000   T   T   T
  0.8483224218599696  0.9746701283181738  0.0000000000000000   T   T   T
  0.5025509736779571  0.0026117279138298  0.0000000000000000   T   T   T
 -0.0145690942723245  0.4977405080955760  0.0000000000000000   T   T   T
  0.5945643993834824  0.3376670845123397  0.0000000000000000   T   T   T
  0.3999606241240303  0.6920827437833382  0.0000000000000000   T   T   T
  0.0929245752808193  0.1890944365679171  0.0000000000000000   T   T   T
  0.8954333678802981  0.8010139404161205  0.0000000000000000   T   T   T
  0.7627558415338666  0.1634999246222020  0.0000000000000000   T   T   T
  0.2247312141362227  0.8463304333811436  0.0000000000000000   T   T   T
  0.2651894324942881  0.3400341186999664  0.0000000000000000   T   T   T
  0.7219819076139707  0.6361725245504956  0.0000000000000000   T   T   T
  0.7586278801191657  0.4165280772410821  0.5000000000000000   T   T   T
  0.2353539056821299  0.5865338451222805  0.5000000000000000   T   T   T
  0.2592013124284649  0.0997418716160031  0.5000000000000000   T   T   T
  0.7378823415842988  0.9055028721206109  0.5000000000000000   T   T   T
  0.9073340636640849  0.2448662947193416  0.5000000000000000   T   T   T
  0.1051493923924371  0.7543890595756537  0.5000000000000000   T   T   T
  0.4300204605722978  0.2575631854366523  0.5000000000000000   T   T   T
  0.5938617935555043  0.7422070805156853  0.5000000000000000   T   T   T
  0.5963598800500323  0.1034117389886996  0.5000000000000000   T   T   T
  0.4020768163476720  0.8945885598316848  0.5000000000000000   T   T   T
  0.0977324266280398  0.3912308806137013  0.5000000000000000   T   T   T
  0.9024217892190589  0.6137578060596931  0.5000000000000000   T   T   T
  0.9277964934718648  0.0696703248318297  0.5000000000000000   T   T   T
  0.0697779248575603  0.9293962008522060  0.5000000000000000   T   T   T
  0.4250863532108569  0.4291810527002305  0.5000000000000000   T   T   T
  0.5679339903451669  0.5666294793587422  0.5000000000000000   T   T   T
  0.9244881592347018  0.3353588262993512  0.0000000000000000   T   T   T
  0.0780311817450220  0.6577567873905739  0.0000000000000000   T   T   T
  0.4199856999566073  0.1628927956597392  0.0000000000000000   T   T   T
  0.5760261568922491  0.8412093187352816  0.0000000000000000   T   T   T
 
  0.00000000E+00  0.00000000E+00  0.00000000E+00
  0.00000000E+00  0.00000000E+00  0.00000000E+00
  0.00000000E+00  0.00000000E+00  0.00000000E+00
  0.00000000E+00  0.00000000E+00  0.00000000E+00
  0.00000000E+00  0.00000000E+00  0.00000000E+00
  0.00000000E+00  0.00000000E+00  0.00000000E+00
  0.00000000E+00  0.00000000E+00  0.00000000E+00
  0.00000000E+00  0.00000000E+00  0.00000000E+00
  0.00000000E+00  0.00000000E+00  0.00000000E+00
  0.00000000E+00  0.00000000E+00  0.00000000E+00
  0.00000000E+00  0.00000000E+00  0.00000000E+00
  0.00000000E+00  0.00000000E+00  0.00000000E+00
  0.00000000E+00  0.00000000E+00  0.00000000E+00
  0.00000000E+00  0.00000000E+00  0.00000000E+00
  0.00000000E+00  0.00000000E+00  0.00000000E+00
  0.00000000E+00  0.00000000E+00  0.00000000E+00
  0.00000000E+00  0.00000000E+00  0.00000000E+00
  0.00000000E+00  0.00000000E+00  0.00000000E+00
  0.00000000E+00  0.00000000E+00  0.00000000E+00
  0.00000000E+00  0.00000000E+00  0.00000000E+00
  0.00000000E+00  0.00000000E+00  0.00000000E+00
  0.00000000E+00  0.00000000E+00  0.00000000E+00
  0.00000000E+00  0.00000000E+00  0.00000000E+00
  0.00000000E+00  0.00000000E+00  0.00000000E+00
  0.00000000E+00  0.00000000E+00  0.00000000E+00
  0.00000000E+00  0.00000000E+00  0.00000000E+00
  0.00000000E+00  0.00000000E+00  0.00000000E+00
  0.00000000E+00  0.00000000E+00  0.00000000E+00
  0.00000000E+00  0.00000000E+00  0.00000000E+00
  0.00000000E+00  0.00000000E+00  0.00000000E+00
  0.00000000E+00  0.00000000E+00  0.00000000E+00
  0.00000000E+00  0.00000000E+00  0.00000000E+00
  0.00000000E+00  0.00000000E+00  0.00000000E+00
