K-Point Grid
0
Monkhorst Pack
5 3 9
0 0 0

