Li Si
1.0
  7.808323523789   0.000000000000   0.000000000000
  0.000000000000  14.863366587513   0.000000000000
  0.000000000000   0.000000000000   4.329164356095
Li Si
 25   8
Selective dynamics
Direct
  0.347535744084   0.526285578360   0.000000000000  T T T
  0.152464255916   0.026285578360   0.000000000000  T T T
  0.847535744084   0.973714421640   0.000000000000  T T T
  0.500000000000   0.000000000000   0.000000000000  T T T
  0.000000000000   0.500000000000   0.000000000000  T T T
  0.594498453296   0.306198574336   0.000000000000  T T T
  0.405501546704   0.693801425664   0.000000000000  T T T
  0.094498453296   0.193801425664   0.000000000000  T T T
  0.905501546704   0.806198574336   0.000000000000  T T T
  0.769730479793   0.153870905259   0.000000000000  T T T
  0.230269520207   0.846129094741   0.000000000000  T T T
  0.269730479793   0.346129094741   0.000000000000  T T T
  0.730269520207   0.653870905259   0.000000000000  T T T
  0.758830635676   0.404592507993   0.500000000000  T T T
  0.241169364324   0.595407492007   0.500000000000  T T T
  0.258830635676   0.095407492007   0.500000000000  T T T
  0.741169364324   0.904592507993   0.500000000000  T T T
  0.908827176765   0.244425311831   0.500000000000  T T T
  0.091172823235   0.755574688169   0.500000000000  T T T
  0.408827176765   0.255574688169   0.500000000000  T T T
  0.591172823235   0.744425311831   0.500000000000  T T T
  0.594794630467   0.106298679344   0.500000000000  T T T
  0.405205369533   0.893701320656   0.500000000000  T T T
  0.094794630467   0.393701320656   0.500000000000  T T T
  0.905205369533   0.606298679344   0.500000000000  T T T
  0.926788940429   0.069643767313   0.500000000000  T T T
  0.073211059571   0.930356232687   0.500000000000  T T T
  0.426788940429   0.430356232687   0.500000000000  T T T
  0.573211059571   0.569643767313   0.500000000000  T T T
  0.916555803126   0.339808883657   0.000000000000  T T T
  0.083444196874   0.660191116343   0.000000000000  T T T
  0.416555803126   0.160191116343   0.000000000000  T T T
  0.583444196874   0.839808883657   0.000000000000  T T T
