Si Li                                   
   1.00000000000000     
     6.5825900332292102    0.0000000000000000    0.0000000000000000
     0.0000000000000000    6.5825900332292102    0.0000000000000000
     0.0000000000000000    0.0000000000000000    6.5825900332292102
   Si   Li
     8    12
Selective dynamics
Direct
  0.9301199050851139  0.9710254728767609  0.0172733965192506   T   T   T
  0.1800128815832025  0.2210219589247799  0.1327584622426627   T   T   T
  0.4300933622082326  0.3364570378926217  0.8829068362910846   T   T   T
  0.8146251998618155  0.7210914176265106  0.2674710040696411   T   T   T
  0.5645576477639267  0.8362947576772655  0.5174655617953974   T   T   T
  0.6798460504165078  0.0864130549933293  0.7675275622002502   T   T   T
  0.0645578157244344  0.4709808008514926  0.3827306715565015   T   T   T
  0.3145114260531798  0.5862894490383113  0.6327626620595197   T   T   T
  0.2896408830887935  0.9456839063487052  0.8250760341922643   T   T   T
  0.3727555599756158  0.1960193511247823  0.4919710113608957   T   T   T
  0.2051686700353272  0.8620039995215194  0.3251541925066803   T   T   T
  0.7892719746951400  0.3615998505310571  0.0751416557168056   T   T   T
  0.8714370011342254  0.1116901147876845  0.4077913613201574   T   T   T
  0.1223430000894794  0.6116757238420831  0.9920906631917745   T   T   T
  0.7054155106745057  0.4458984033427029  0.5753473630643242   T   T   T
  0.6227751439390374  0.6955689448556654  0.9080644328498053   T   T   T
  0.4552911669017803  0.5290851410469841  0.2422335106763498   T   T   T
  0.5392156321042876  0.0280368932203814  0.1578924994061097   T   T   T
  0.9554973570872960  0.7790283426531630  0.6579181129912399   T   T   T
  0.0393431350370932  0.2785086977872098  0.7418688939202625   T   T   T
 
  0.00000000E+00  0.00000000E+00  0.00000000E+00
  0.00000000E+00  0.00000000E+00  0.00000000E+00
  0.00000000E+00  0.00000000E+00  0.00000000E+00
  0.00000000E+00  0.00000000E+00  0.00000000E+00
  0.00000000E+00  0.00000000E+00  0.00000000E+00
  0.00000000E+00  0.00000000E+00  0.00000000E+00
  0.00000000E+00  0.00000000E+00  0.00000000E+00
  0.00000000E+00  0.00000000E+00  0.00000000E+00
  0.00000000E+00  0.00000000E+00  0.00000000E+00
  0.00000000E+00  0.00000000E+00  0.00000000E+00
  0.00000000E+00  0.00000000E+00  0.00000000E+00
  0.00000000E+00  0.00000000E+00  0.00000000E+00
  0.00000000E+00  0.00000000E+00  0.00000000E+00
  0.00000000E+00  0.00000000E+00  0.00000000E+00
  0.00000000E+00  0.00000000E+00  0.00000000E+00
  0.00000000E+00  0.00000000E+00  0.00000000E+00
  0.00000000E+00  0.00000000E+00  0.00000000E+00
  0.00000000E+00  0.00000000E+00  0.00000000E+00
  0.00000000E+00  0.00000000E+00  0.00000000E+00
  0.00000000E+00  0.00000000E+00  0.00000000E+00
