Si Li
1.0
  6.459620000000   0.000000000000   0.000000000000
  0.000000000000   6.459620000000   0.000000000000
  0.000000000000   0.000000000000   6.459620000000
Si Li
  8  12
Selective dynamics
Direct
  0.963313811865   0.018943235995   0.041033217651  T T T
  0.200965139374   0.275794295299   0.168007415994  T T T
  0.449245957301   0.390253264511   0.913996191417  T T T
  0.830508942368   0.772023053601   0.287682225301  T T T
  0.591290477598   0.901099607996   0.542103758874  T T T
  0.706284265545   0.140571119973   0.799094905211  T T T
  0.087340020636   0.530514237509   0.410732464294  T T T
  0.345189322545   0.645776676755   0.659081237023  T T T
  0.174429348120   0.868319440834   0.836715363024  T T T
  0.276905126648   0.029634539756   0.575266939077  T T T
  0.220321074459   0.718754354591   0.155529605797  T T T
  0.660528399581   0.274593943421   0.202798854669  T T T
  0.981560053502   0.207165880346   0.429002540397  T T T
  0.999807979432   0.512560403770   0.929032136674  T T T
  0.711428137243   0.434019440834   0.464390899279  T T T
  0.729725891740   0.701658099021   0.856173595769  T T T
  0.526057519823   0.561040479363   0.220585637607  T T T
  0.493634771999   0.009721208585   0.115061309086  T T T
  0.925399799214   0.879997660838   0.578903483796  T T T
  0.072543284466   0.201932375945   0.816254106991  T T T
