Li                                      
   1.00000000000000     
     3.3792013294921457    0.0000000000000000    0.0000000000000000
     0.0000000000000000    3.3792013294921457    0.0000000000000000
     0.0000000000000000    0.0000000000000000    3.3792013294921457
   Li
     2
Selective dynamics
Direct
  0.2501802325580016  0.2501802325580016  0.2501802325580016   T   T   T
  0.7505465116280021  0.7505465116280021  0.7505465116280021   T   T   T
 
  0.00000000E+00  0.00000000E+00  0.00000000E+00
  0.00000000E+00  0.00000000E+00  0.00000000E+00
