Li
1.0
  3.440000000000   0.000000000000   0.000000000000
  0.000000000000   3.440000000000   0.000000000000
  0.000000000000   0.000000000000   3.440000000000
Li
  2
Selective dynamics
Direct
  0.250180232558   0.250180232558   0.250180232558  T T T
  0.750546511628   0.750546511628   0.750546511628  T T T
