Li Si                                   
   1.00000000000000     
     7.8083235237890003    0.0000000000000000    0.0000000000000000
     0.0000000000000000   14.8633665875129992    0.0000000000000000
     0.0000000000000000    0.0000000000000000    4.3291643560950002
   Li   Si
    25     8
Selective dynamics
Direct
  0.6400751383224981  0.4644470491367437  0.0000000000000000   T   T   T
  0.3363231771447193  0.5231888296198364  0.0000000000000000   T   T   T
  0.1519323492594801  0.0212647324028140  0.0000000000000000   T   T   T
  0.8290366017248768  0.9884706284950140  0.0000000000000000   T   T   T
  0.4947957201580530  0.0025818278286519  0.0000000000000000   T   T   T
 -0.0110662402569843  0.5063408125828417  0.0000000000000000   T   T   T
  0.6276484152395098  0.2781555664496108  0.0000000000000000   T   T   T
  0.4149179167744736  0.6905718732069156  0.0000000000000000   T   T   T
  0.0516496274742158  0.1830283914727245  0.0000000000000000   T   T   T
  0.9108201211656131  0.8137673048858430  0.0000000000000000   T   T   T
  0.2393773182444708  0.8400592560365480  0.0000000000000000   T   T   T
  0.2760380482023316  0.3402763701913116  0.0000000000000000   T   T   T
  0.7381117081524469  0.6550110430639677  0.0000000000000000   T   T   T
  0.7613540897835801  0.4066894358419313  0.5000000000000000   T   T   T
  0.2467843028633987  0.6000606327674602  0.5000000000000000   T   T   T
  0.2594157906755785  0.0923673037375946  0.5000000000000000   T   T   T
  0.7439724563385619  0.9070197181861166  0.5000000000000000   T   T   T
  0.9077751507169944  0.2451784420835451  0.5000000000000000   T   T   T
  0.0911651316028831  0.7570879451955100  0.5000000000000000   T   T   T
  0.3915580415971084  0.2570726840426001  0.5000000000000000   T   T   T
  0.5981072846924160  0.7455305749125266  0.5000000000000000   T   T   T
  0.6097496352959308  0.1173892511137686  0.5000000000000000   T   T   T
  0.4083669598257449  0.8951017888097385  0.5000000000000000   T   T   T
  0.0975663647843617  0.3997070627149055  0.5000000000000000   T   T   T
  0.9103598849149666  0.6080312895322044  0.5000000000000000   T   T   T
  0.9336652936930790  0.0667485523468066  0.5000000000000000   T   T   T
  0.0741635301454928  0.9284079511454958  0.5000000000000000   T   T   T
  0.4273743733460921  0.4318427965481955  0.5000000000000000   T   T   T
  0.5761646553089804  0.5694377505867239  0.5000000000000000   T   T   T
  0.9248700547511155  0.3466705220876510  0.0000000000000000   T   T   T
  0.0883641497019440  0.6630505664655476  0.0000000000000000   T   T   T
  0.3938638116431032  0.1597381956454113  0.0000000000000000   T   T   T
  0.5859686569199647  0.8418329456044468  0.0000000000000000   T   T   T
 
  0.00000000E+00  0.00000000E+00  0.00000000E+00
  0.00000000E+00  0.00000000E+00  0.00000000E+00
  0.00000000E+00  0.00000000E+00  0.00000000E+00
  0.00000000E+00  0.00000000E+00  0.00000000E+00
  0.00000000E+00  0.00000000E+00  0.00000000E+00
  0.00000000E+00  0.00000000E+00  0.00000000E+00
  0.00000000E+00  0.00000000E+00  0.00000000E+00
  0.00000000E+00  0.00000000E+00  0.00000000E+00
  0.00000000E+00  0.00000000E+00  0.00000000E+00
  0.00000000E+00  0.00000000E+00  0.00000000E+00
  0.00000000E+00  0.00000000E+00  0.00000000E+00
  0.00000000E+00  0.00000000E+00  0.00000000E+00
  0.00000000E+00  0.00000000E+00  0.00000000E+00
  0.00000000E+00  0.00000000E+00  0.00000000E+00
  0.00000000E+00  0.00000000E+00  0.00000000E+00
  0.00000000E+00  0.00000000E+00  0.00000000E+00
  0.00000000E+00  0.00000000E+00  0.00000000E+00
  0.00000000E+00  0.00000000E+00  0.00000000E+00
  0.00000000E+00  0.00000000E+00  0.00000000E+00
  0.00000000E+00  0.00000000E+00  0.00000000E+00
  0.00000000E+00  0.00000000E+00  0.00000000E+00
  0.00000000E+00  0.00000000E+00  0.00000000E+00
  0.00000000E+00  0.00000000E+00  0.00000000E+00
  0.00000000E+00  0.00000000E+00  0.00000000E+00
  0.00000000E+00  0.00000000E+00  0.00000000E+00
  0.00000000E+00  0.00000000E+00  0.00000000E+00
  0.00000000E+00  0.00000000E+00  0.00000000E+00
  0.00000000E+00  0.00000000E+00  0.00000000E+00
  0.00000000E+00  0.00000000E+00  0.00000000E+00
  0.00000000E+00  0.00000000E+00  0.00000000E+00
  0.00000000E+00  0.00000000E+00  0.00000000E+00
  0.00000000E+00  0.00000000E+00  0.00000000E+00
  0.00000000E+00  0.00000000E+00  0.00000000E+00
