Si Li                                   
   1.00000000000000     
     7.0932805961687286    0.0000000000000000    0.0000000000000000
     0.0000000000000000    7.0932805961687286    0.0000000000000000
     0.0000000000000000    0.0000000000000000    7.0932805961687286
   Si   Li
     8    16
Selective dynamics
Direct
  0.9743755421962774  0.0703613524210667  0.1189948003948231   T   T   T
  0.3262323718863698  0.0979731582258694  0.1166816731531668   T   T   T
  0.4255452584508035  0.3146358508736355  0.8689358599590378   T   T   T
  0.8021001297896362  0.7743742949141748  0.1786746958387795   T   T   T
  0.6756601737315009  0.8990865190018553  0.6056694677765009   T   T   T
  0.6897814521338219  0.2350749870623972  0.6499468511622482   T   T   T
  0.2159375646677617  0.5812787553134413  0.4320937815666852   T   T   T
  0.1890280980383920  0.5446307181341083  0.7685314779089012   T   T   T
  0.6716832424535468  0.1040955263458372  0.3073793814788601   T   T   T
  0.3493459776419101  0.2259432440522673  0.4922499172400947   T   T   T
  0.1356799878029520  0.4063613669465269  0.1162481470904524   T   T   T
  0.8058341534623779  0.4244761740337921  0.9496293203919492   T   T   T
  0.9348267885989046  0.8092138216785969  0.8358195113686904   T   T   T
  0.1642643833514583  0.7624146182685081  0.1064115085408375   T   T   T
  0.4541886472673653  0.8310583797093187  0.3279052781945566   T   T   T
  0.0220224862648379  0.9031939757609138  0.4407921257577954   T   T   T
  0.3198730944165860  0.8937366475353414  0.7092376950149628   T   T   T
  0.8670623473887318  0.5909402017243011  0.5235563047540808   T   T   T
  0.5195914714322640  0.6993810059287355  0.9485424842013828   T   T   T
  0.0519060486306486  0.1938795991516500  0.7907345911917929   T   T   T
  0.5201346248267882  0.5631897416453882  0.6106393131257803   T   T   T
  0.5084673599134817  0.4370808866455747  0.2317904096779912   T   T   T
  0.9833559433747823  0.2823673171576999  0.4213626586093326   T   T   T
  0.6543212157427760  0.0382699796639798  0.9483566348392571   T   T   T
 
  0.00000000E+00  0.00000000E+00  0.00000000E+00
  0.00000000E+00  0.00000000E+00  0.00000000E+00
  0.00000000E+00  0.00000000E+00  0.00000000E+00
  0.00000000E+00  0.00000000E+00  0.00000000E+00
  0.00000000E+00  0.00000000E+00  0.00000000E+00
  0.00000000E+00  0.00000000E+00  0.00000000E+00
  0.00000000E+00  0.00000000E+00  0.00000000E+00
  0.00000000E+00  0.00000000E+00  0.00000000E+00
  0.00000000E+00  0.00000000E+00  0.00000000E+00
  0.00000000E+00  0.00000000E+00  0.00000000E+00
  0.00000000E+00  0.00000000E+00  0.00000000E+00
  0.00000000E+00  0.00000000E+00  0.00000000E+00
  0.00000000E+00  0.00000000E+00  0.00000000E+00
  0.00000000E+00  0.00000000E+00  0.00000000E+00
  0.00000000E+00  0.00000000E+00  0.00000000E+00
  0.00000000E+00  0.00000000E+00  0.00000000E+00
  0.00000000E+00  0.00000000E+00  0.00000000E+00
  0.00000000E+00  0.00000000E+00  0.00000000E+00
  0.00000000E+00  0.00000000E+00  0.00000000E+00
  0.00000000E+00  0.00000000E+00  0.00000000E+00
  0.00000000E+00  0.00000000E+00  0.00000000E+00
  0.00000000E+00  0.00000000E+00  0.00000000E+00
  0.00000000E+00  0.00000000E+00  0.00000000E+00
  0.00000000E+00  0.00000000E+00  0.00000000E+00
