Si Li
1.0
  6.459620000000   0.000000000000   0.000000000000
  0.000000000000   6.459620000000   0.000000000000
  0.000000000000   0.000000000000   6.459620000000
Si Li
  8  16
Selective dynamics
Direct
  0.963313811865   0.018943235995   0.041033217651  T T T
  0.200965139374   0.275794295299   0.168007415994  T T T
  0.449245957301   0.390253264511   0.913996191417  T T T
  0.830508942368   0.772023053601   0.287682225301  T T T
  0.591290477598   0.901099607996   0.542103758874  T T T
  0.706284265545   0.140571119973   0.799094905211  T T T
  0.087340020636   0.530514237509   0.410732464294  T T T
  0.345189322545   0.645776676755   0.659081237023  T T T
  0.435853789588   0.213440430459   0.334405532771  T T T
  0.351239307715   0.289269952861   0.612060327558  T T T
  0.876661032677   0.303283822485   0.236227722405  T T T
  0.865550885238   0.402959498577   0.904974139733  T T T
  0.046268875212   0.806194413541   0.627301851905  T T T
  0.162919664686   0.590904160833   0.892941393379  T T T
  0.438689928634   0.731018257312   0.081873562175  T T T
  0.218818659704   0.937693544744   0.421347703704  T T T
  0.443381378285   0.958941376257   0.860471705967  T T T
  0.850349306260   0.343729983265   0.542145230849  T T T
  0.800694984875   0.842683771383   0.863332092012  T T T
  0.138965235943   0.268626883532   0.858439260142  T T T
  0.649056811902   0.601487564485   0.724142618730  T T T
  0.525167765859   0.499328493209   0.313436587648  T T T
  0.716197611237   0.074174451206   0.327861308993  T T T
  0.567265188417   0.144306026407   0.077491435502  T T T
