Li Si                                   
   1.00000000000000     
    10.4080477560050007    0.0000000000000000    0.0000000000000000
     0.0000000000000000   10.4080477560050007    0.0000000000000000
     0.0000000000000000    0.0000000000000000   10.4080477560050007
   Li   Si
    59    16
Selective dynamics
Direct
  0.7850977935354134  0.4054330235781085  0.8741878053147613   T   T   T
  0.7132848187611442  0.4090117964375097  0.1360866460720236   T   T   T
  0.7838580501722799  0.5931335705560679  0.6286012009980840   T   T   T
  0.2142680193471035  0.0942163218879723  0.8706118439777156   T   T   T
  0.6263961562295542  0.1511830381517663  0.5381170996705079   T   T   T
  0.3781631352659646  0.6559833035252030  0.9632346569797241   T   T   T
  0.8778991700786341  0.8424077167569648  0.0356942554377365   T   T   T
  0.6220583572382818  0.8456411573131518  0.9656590566420918   T   T   T
  0.8685994079843501  0.7830881471697143  0.4078109944863147   T   T   T
  0.1305606505322834  0.7114130724982248  0.4067274328607253   T   T   T
  0.6279061128960221  0.7888095473784715  0.5962065391068925   T   T   T
  0.8686543844224323  0.2146602076579895  0.0925202207877126   T   T   T
  0.5342898025865928  0.6223503862095697  0.1535138742841737   T   T   T
  0.9626760535306981  0.3790761232742753  0.6534290250628567   T   T   T
  0.0353203902672270  0.8776748600083987  0.8433419671479863   T   T   T
  0.9636612304974754  0.6213105197258519  0.8441113730443797   T   T   T
  0.4068567900884365  0.8699394980530257  0.7838281748508704   T   T   T
  0.4065972783591829  0.1292453214696566  0.7138905855508147   T   T   T
  0.5939265559474519  0.6303663755256577  0.7898190327769840   T   T   T
  0.0942939656475403  0.8684660772188206  0.2146110356000502   T   T   T
  0.1583308538081464  0.5349769253041822  0.6191493448910450   T   T   T
  0.6531721289901654  0.9654488885082219  0.3765968420822804   T   T   T
  0.8433001797347350  0.0354501168157368  0.8784257625324567   T   T   T
  0.8442637841075679  0.9648767033807760  0.6220195109482259   T   T   T
 -0.0008500551294976  0.2507478222443724  0.8737114737971766   T   T   T
 -0.0007658065912111  0.7488676126833348  0.6251016511177343   T   T   T
  0.6247217899233973  0.0011047003425012  0.7526895907804657   T   T   T
  0.8744981443428128 -0.0055885101883187  0.2501440947985664   T   T   T
  0.7497395795290267  0.6252842981845091  0.0006544050752679   T   T   T
  0.2511156660612645  0.8745662802320194 -0.0009541709722346   T   T   T
  0.2854763489131213  0.9086633634228670  0.3699625071639704   T   T   T
  0.2139016549733508  0.9074986921239346  0.6286469692175893   T   T   T
  0.2864218031263877  0.0953150481382949  0.1278500739854666   T   T   T
  0.7079149908857036  0.5901910268791126  0.3704006418487081   T   T   T
  0.1221139221690966  0.6555432739901527  0.0361517843424102   T   T   T
  0.8795436974437244  0.1590069536590668  0.4655085791147373   T   T   T
  0.3927062237451610  0.3408277000892171  0.5239321869265254   T   T   T
  0.1253687881718006  0.3469116748657549  0.4646208018689815   T   T   T
  0.3720735947599403  0.2848662457042371  0.9086467205831218   T   T   T
  0.6265925194068819  0.2153398789190897  0.9105116567791992   T   T   T
  0.1239670994107244  0.2840042861784935  0.0923886070714204   T   T   T
  0.3680248856660536  0.7143725378151415  0.5892199007384245   T   T   T
  0.0363514874061009  0.1218963954909501  0.6559189822811772   T   T   T
  0.4632532213327121  0.8784849007036992  0.1564791916314728   T   T   T
  0.4654293689938779  0.1324392297137233  0.3477509497464439   T   T   T
  0.9121243329338614  0.3681457174518948  0.2863962466927816   T   T   T
  0.9056920861500957  0.6274424329986477  0.2157967914751998   T   T   T
  0.0878847047722801  0.1254201189458422  0.2842021902677560   T   T   T
  0.5949607365920780  0.3730131027937073  0.7171527365390660   T   T   T
  0.6511298002949741  0.0390616466442507  0.1235331336821690   T   T   T
  0.1554570752580875  0.4639213043227945  0.8755198736187081   T   T   T
  0.3742811748385065  0.5211753320889337  0.3632564592133502   T   T   T
  0.3375795143084798  0.4634592966736145  0.1156248360598682   T   T   T
  0.5007480350024116  0.7528994572795340  0.3765874292581132   T   T   T
  0.5006001041842091  0.2624319954320576  0.1377022680342861   T   T   T
  0.1280924416893157  0.5009610802677599  0.2534633560728377   T   T   T
  0.3760349353967332  0.4988654990921757  0.7480985950138511   T   T   T
  0.2473089880630146  0.1260308579218747  0.4984894106752669   T   T   T
  0.7395543612534290  0.3751787960063134  0.4950702425696781   T   T   T
  0.4578260803953606  0.9606945347882907  0.5407255933328411   T   T   T
  0.5419272568414382  0.4585658604826922  0.9593108388326966   T   T   T
  0.9555985566791111  0.5414478423581954  0.4580643472825497   T   T   T
  0.5432709658321926  0.5477669807557826  0.5503171068242688   T   T   T
  0.2931345530832865  0.7063187230422870  0.2098740878626030   T   T   T
  0.7107118493821687  0.2074057636405716  0.2934747102679516   T   T   T
  0.2112443151411781  0.2919093533141009  0.7055557759467593   T   T   T
  0.7916674204399520  0.7921326803087909  0.7924228159021914   T   T   T
  0.9587855438240754  0.4592156359112211  0.0419278555443012   T   T   T
  0.0404663852884505  0.9564412642198333  0.4584600499992662   T   T   T
  0.4574281760990310  0.0407584461859380  0.9577036450416848   T   T   T
  0.0406575725429337  0.0398087355297696  0.0408815170678787   T   T   T
  0.7915774957361881  0.2093502165140139  0.7105938839995073   T   T   T
  0.2076680742139223  0.7081415107067379  0.7907054401326449   T   T   T
  0.7078957993789623  0.7912675950726213  0.2087827252462023   T   T   T
  0.2814011348011635  0.2879362785522815  0.2874965249086820   T   T   T
 
  0.00000000E+00  0.00000000E+00  0.00000000E+00
  0.00000000E+00  0.00000000E+00  0.00000000E+00
  0.00000000E+00  0.00000000E+00  0.00000000E+00
  0.00000000E+00  0.00000000E+00  0.00000000E+00
  0.00000000E+00  0.00000000E+00  0.00000000E+00
  0.00000000E+00  0.00000000E+00  0.00000000E+00
  0.00000000E+00  0.00000000E+00  0.00000000E+00
  0.00000000E+00  0.00000000E+00  0.00000000E+00
  0.00000000E+00  0.00000000E+00  0.00000000E+00
  0.00000000E+00  0.00000000E+00  0.00000000E+00
  0.00000000E+00  0.00000000E+00  0.00000000E+00
  0.00000000E+00  0.00000000E+00  0.00000000E+00
  0.00000000E+00  0.00000000E+00  0.00000000E+00
  0.00000000E+00  0.00000000E+00  0.00000000E+00
  0.00000000E+00  0.00000000E+00  0.00000000E+00
  0.00000000E+00  0.00000000E+00  0.00000000E+00
  0.00000000E+00  0.00000000E+00  0.00000000E+00
  0.00000000E+00  0.00000000E+00  0.00000000E+00
  0.00000000E+00  0.00000000E+00  0.00000000E+00
  0.00000000E+00  0.00000000E+00  0.00000000E+00
  0.00000000E+00  0.00000000E+00  0.00000000E+00
  0.00000000E+00  0.00000000E+00  0.00000000E+00
  0.00000000E+00  0.00000000E+00  0.00000000E+00
  0.00000000E+00  0.00000000E+00  0.00000000E+00
  0.00000000E+00  0.00000000E+00  0.00000000E+00
  0.00000000E+00  0.00000000E+00  0.00000000E+00
  0.00000000E+00  0.00000000E+00  0.00000000E+00
  0.00000000E+00  0.00000000E+00  0.00000000E+00
  0.00000000E+00  0.00000000E+00  0.00000000E+00
  0.00000000E+00  0.00000000E+00  0.00000000E+00
  0.00000000E+00  0.00000000E+00  0.00000000E+00
  0.00000000E+00  0.00000000E+00  0.00000000E+00
  0.00000000E+00  0.00000000E+00  0.00000000E+00
  0.00000000E+00  0.00000000E+00  0.00000000E+00
  0.00000000E+00  0.00000000E+00  0.00000000E+00
  0.00000000E+00  0.00000000E+00  0.00000000E+00
  0.00000000E+00  0.00000000E+00  0.00000000E+00
  0.00000000E+00  0.00000000E+00  0.00000000E+00
  0.00000000E+00  0.00000000E+00  0.00000000E+00
  0.00000000E+00  0.00000000E+00  0.00000000E+00
  0.00000000E+00  0.00000000E+00  0.00000000E+00
  0.00000000E+00  0.00000000E+00  0.00000000E+00
  0.00000000E+00  0.00000000E+00  0.00000000E+00
  0.00000000E+00  0.00000000E+00  0.00000000E+00
  0.00000000E+00  0.00000000E+00  0.00000000E+00
  0.00000000E+00  0.00000000E+00  0.00000000E+00
  0.00000000E+00  0.00000000E+00  0.00000000E+00
  0.00000000E+00  0.00000000E+00  0.00000000E+00
  0.00000000E+00  0.00000000E+00  0.00000000E+00
  0.00000000E+00  0.00000000E+00  0.00000000E+00
  0.00000000E+00  0.00000000E+00  0.00000000E+00
  0.00000000E+00  0.00000000E+00  0.00000000E+00
  0.00000000E+00  0.00000000E+00  0.00000000E+00
  0.00000000E+00  0.00000000E+00  0.00000000E+00
  0.00000000E+00  0.00000000E+00  0.00000000E+00
  0.00000000E+00  0.00000000E+00  0.00000000E+00
  0.00000000E+00  0.00000000E+00  0.00000000E+00
  0.00000000E+00  0.00000000E+00  0.00000000E+00
  0.00000000E+00  0.00000000E+00  0.00000000E+00
  0.00000000E+00  0.00000000E+00  0.00000000E+00
  0.00000000E+00  0.00000000E+00  0.00000000E+00
  0.00000000E+00  0.00000000E+00  0.00000000E+00
  0.00000000E+00  0.00000000E+00  0.00000000E+00
  0.00000000E+00  0.00000000E+00  0.00000000E+00
  0.00000000E+00  0.00000000E+00  0.00000000E+00
  0.00000000E+00  0.00000000E+00  0.00000000E+00
  0.00000000E+00  0.00000000E+00  0.00000000E+00
  0.00000000E+00  0.00000000E+00  0.00000000E+00
  0.00000000E+00  0.00000000E+00  0.00000000E+00
  0.00000000E+00  0.00000000E+00  0.00000000E+00
  0.00000000E+00  0.00000000E+00  0.00000000E+00
  0.00000000E+00  0.00000000E+00  0.00000000E+00
  0.00000000E+00  0.00000000E+00  0.00000000E+00
  0.00000000E+00  0.00000000E+00  0.00000000E+00
  0.00000000E+00  0.00000000E+00  0.00000000E+00
