Si Li                                   
   1.00000000000000     
     6.5162661312975594    0.0000000000000000    0.0000000000000000
     0.0000000000000000    6.5162661312975594    0.0000000000000000
     0.0000000000000000    0.0000000000000000    6.5162661312975594
   Si   Li
     8     9
Selective dynamics
Direct
  0.9619371392056095  0.0158607404887690  0.0268195853279067   T   T   T
  0.2178547858850735  0.2610914991301101  0.1375551764019463   T   T   T
  0.4736341916172861  0.3830128893798275  0.8974067134533641   T   T   T
  0.8503154817381002  0.7709145065002758  0.2824100148772644   T   T   T
  0.5927876967164778  0.8779587871285131  0.5310280149422582   T   T   T
  0.7145925603267784  0.1288959197421136  0.7747137366158441   T   T   T
  0.1047770369865262  0.5184149677886651  0.3813776403641143   T   T   T
  0.3441448811098837  0.6246230300562559  0.6435125670627997   T   T   T
  0.8551165326010093  0.4146817682897392  0.0350758207890109   T   T   T
  0.3507168556578861  0.2187267497112657  0.5514318029774188   T   T   T
  0.2401831114560267  0.8986106970071503  0.3310240772261110   T   T   T
  0.8942293716901659  0.1879410240830595  0.4297710928319560   T   T   T
  0.5211398208235352  0.5382152290218229  0.2818463108197520   T   T   T
  0.5699829235444227  0.0794987966612766  0.1704344819444898   T   T   T
  0.9851194052933181  0.8165383317981778  0.6711203581767080   T   T   T
  0.6340109828820175  0.7512893889228991  0.9217373161446787   T   T   T
  0.1883793289528839  0.6732461887941099  0.0005122165503764   T   T   T
 
  0.00000000E+00  0.00000000E+00  0.00000000E+00
  0.00000000E+00  0.00000000E+00  0.00000000E+00
  0.00000000E+00  0.00000000E+00  0.00000000E+00
  0.00000000E+00  0.00000000E+00  0.00000000E+00
  0.00000000E+00  0.00000000E+00  0.00000000E+00
  0.00000000E+00  0.00000000E+00  0.00000000E+00
  0.00000000E+00  0.00000000E+00  0.00000000E+00
  0.00000000E+00  0.00000000E+00  0.00000000E+00
  0.00000000E+00  0.00000000E+00  0.00000000E+00
  0.00000000E+00  0.00000000E+00  0.00000000E+00
  0.00000000E+00  0.00000000E+00  0.00000000E+00
  0.00000000E+00  0.00000000E+00  0.00000000E+00
  0.00000000E+00  0.00000000E+00  0.00000000E+00
  0.00000000E+00  0.00000000E+00  0.00000000E+00
  0.00000000E+00  0.00000000E+00  0.00000000E+00
  0.00000000E+00  0.00000000E+00  0.00000000E+00
  0.00000000E+00  0.00000000E+00  0.00000000E+00
