Si Li
1.0
  6.459620000000   0.000000000000   0.000000000000
  0.000000000000   6.459620000000   0.000000000000
  0.000000000000   0.000000000000   6.459620000000
Si Li
  8   9
Selective dynamics
Direct
  0.963313811865   0.018943235995   0.041033217651  T T T
  0.200965139374   0.275794295299   0.168007415994  T T T
  0.449245957301   0.390253264511   0.913996191417  T T T
  0.830508942368   0.772023053601   0.287682225301  T T T
  0.591290477598   0.901099607996   0.542103758874  T T T
  0.706284265545   0.140571119973   0.799094905211  T T T
  0.087340020636   0.530514237509   0.410732464294  T T T
  0.345189322545   0.645776676755   0.659081237023  T T T
  0.794708709026   0.483702970902   0.918927403686  T T T
  0.303620303888   0.205757726910   0.489593833972  T T T
  0.302518547376   0.898291137048   0.142500060669  T T T
  0.999408701874   0.067538198516   0.567092401534  T T T
  0.609059753252   0.456811128952   0.309498054591  T T T
  0.855389252170   0.286146188166   0.204435964763  T T T
  0.874157506649   0.689606276143   0.657952791511  T T T
  0.541880696109   0.759364288147   0.902868191132  T T T
  0.044040698911   0.637327108081   0.053176808883  T T T
