Geometry = GenFormat {
  534  C
  H C S Au
   1    1    8.707670  16.924139  17.783308
   2    1    7.183490  17.296644  18.716173
   3    2    8.259170  17.058590  18.821463
   4    1    8.375670  16.119909  19.398054
   5    3    9.090870  18.348629  19.630356
   6    2    10.442400  17.598505  20.255707
   7    1    10.738600  16.748516  19.571123
   8    1    11.302000  18.314575  20.291031
   9    4    7.214760  5.501179  14.065051
   10   4    12.243900  5.541120  14.118457
   11   4    9.763270  6.914973  14.122801
   12   4    7.292360  8.389831  14.146733
   13   4    12.259400  8.350960  14.143043
   14   4    4.812790  9.806317  14.206382
   15   4    9.801870  9.817314  14.114309
   16   4    14.791400  9.762355  14.133921
   17   4    7.324860  11.240151  14.136164
   18   4    12.295500  11.260735  14.111577
   19   4    9.765670  12.697036  14.090570
   20   4    7.191460  14.128229  14.152079
   21   4    12.262800  14.182974  14.124409
   22   1    8.976570  16.337936  21.582472
   23   1    10.556300  16.748726  22.366974
   24   2    9.733770  17.136129  21.718744
   25   2    9.080270  18.455301  22.496632
   26   1    9.343370  19.404980  22.021187
   27   4    8.923770  5.484061  16.418776
   28   4    6.412620  6.977947  16.446568
   29   4    11.432900  6.964534  16.472597
   30   4    8.984670  8.375943  16.449421
   31   4    13.923600  8.366500  16.477711
   32   4    6.481270  9.823983  16.461397
   33   4    11.473900  9.792420  16.466900
   34   4    8.969570  11.225346  16.477518
   35   4    13.968500  11.317174  16.511578
   36   4    6.449990  12.621247  16.498659
   37   4    11.467100  12.681448  16.447607
   38   4    8.900870  14.101766  16.511108
   39   1    9.486170  18.513296  23.498556
   40   1    14.982600  4.559897  19.706879
   41   1    16.564500  4.031331  18.914837
   42   2    16.026500  4.879757  19.369061
   43   1    7.067510  19.171959  22.886246
   44   1    7.096510  17.981699  21.651773
   45   2    7.509800  18.233580  22.593184
   46   1    15.928100  5.758121  18.640106
   47   3    17.023600  5.436744  20.650286
   48   4    10.586100  5.470085  18.778929
   49   4    8.119670  6.927305  18.780716
   50   4    13.112400  6.785519  18.825310
   51   4    5.619420  8.274084  18.838694
   52   4    10.576000  8.315453  18.820835
   53   4    8.111570  9.761129  18.844513
   54   4    13.073200  9.762299  18.846874
   55   4    5.565070  11.205695  18.864853
   56   4    10.605600  11.212267  18.801926
   57   4    8.119670  12.646544  18.817141
   58   4    13.139700  12.655328  18.829290
   59   4    10.625500  14.073196  18.817472
   60   2    7.200340  17.132213  23.657276
   61   1    8.096670  16.520187  23.794748
   62   1    6.426400  16.420355  23.312853
   63   2    15.892100  6.199524  21.638426
   64   1    16.448000  7.027757  22.152445
   65   1    15.055200  6.629829  21.057072
   66   1    7.568410  18.593197  25.303045
   67   1    5.897820  18.496324  24.850014
   68   2    6.793010  17.900238  24.983978
   69   1    14.763800  5.120351  23.364340
   70   1    14.940600  4.103336  21.939848
   71   2    15.467100  4.818906  22.564568
   72   4    7.317130  5.361220  21.117483
   73   4    12.208900  5.336489  21.197956
   74   4    9.746770  6.853869  21.152185
   75   4    7.287060  8.297805  21.213083
   76   4    12.231800  8.303368  21.183189
   77   4    4.789820  9.834338  21.195513
   78   4    9.790670  9.762927  21.137367
   79   4    14.748700  9.733044  21.222424
   80   4    7.259850  11.166582  21.180492
   81   4    12.259500  11.190592  21.140312
   82   4    9.722470  12.699083  21.146475
   83   4    7.109310  14.054794  21.179264
   84   4    12.314700  14.062673  21.168558
   85   2    6.666580  16.797390  26.180426
   86   1    7.295340  17.076568  27.023203
   87   1    7.018740  15.789671  25.862862
   88   2    16.815800  4.142195  23.231071
   89   1    17.439100  3.689115  22.477781
   90   1    16.561600  3.294052  23.894724
   91   1    4.581640  17.907074  26.838091
   92   1    4.761940  16.281437  27.582535
   93   2    5.001550  16.865599  26.679276
   94   1    18.568100  4.740760  24.396446
   95   1    17.961900  6.031910  23.353441
   96   4    9.025370  5.442253  23.467634
   97   4    6.506060  6.830711  23.561184
   98   4    11.401500  6.964489  23.479313
   99   4    9.006270  8.352502  23.551777
  100   4    13.925200  8.300917  23.590582
  101   4    6.472350  9.720423  23.522058
  102   4    11.466800  9.796060  23.496464
  103   4    8.913070  11.193227  23.486677
  104   4    13.918400  11.192172  23.515509
  105   4    6.356260  12.587101  23.517258
  106   4    11.394700  12.649527  23.495951
  107   4    8.823070  14.026302  23.485741
  108   2    17.674000  5.232625  24.007544
  109   3    4.378090  16.284038  25.264933
  110   1    4.534830  1.537334  24.775089
  111   1    4.319020  2.684225  26.248554
  112   2    16.811800  5.670682  25.228592
  113   1    16.375400  4.810255  25.708426
  114   1    15.985700  6.279071  24.906042
  115   1    3.710190  14.081884  24.956375
  116   2    5.017800  1.966211  25.707979
  117   1    3.921850  14.428144  26.778030
  118   2    4.340450  14.604282  25.752626
  119   1    5.366940  1.149767  26.412285
  120   4    10.630500  5.553798  25.890320
  121   4    8.115670  6.905551  25.891415
  122   4    13.074400  6.855992  25.882553
  123   4    5.697460  8.309043  25.862915
  124   4    10.627300  8.397489  25.850309
  125   4    8.127870  9.753885  25.857836
  126   4    13.138000  9.798569  25.898514
  127   4    5.590950  11.131490  25.808718
  128   4    10.611700  11.258737  25.898039
  129   4    8.074270  12.578207  25.859043
  130   4    13.075800  12.731744  25.801630
  131   4    10.515800  14.032572  25.869616
  132   1    18.600400  5.816684  26.581041
  133   1    18.215000  7.309650  25.740488
  134   2    17.748700  6.447188  26.243183
  135   3    6.407960  2.883819  25.266933
  136   1    5.393810  14.211365  25.670441
  137   2    16.717100  6.961038  27.443747
  138   1    15.926900  7.581787  27.037231
  139   1    17.248700  7.529639  28.200727
  140   2    7.609610  1.709779  25.158558
  141   1    7.149360  0.696485  25.317875
  142   1    8.083670  1.789677  24.137470
  143   4    7.330580  5.437738  28.227562
  144   4    12.346900  5.439848  28.251595
  145   4    9.810870  6.885104  28.234846
  146   4    7.313140  8.342688  28.240971
  147   4    12.327500  8.382249  28.183031
  148   4    4.830100  9.692345  28.162001
  149   4    9.766170  9.791248  28.210390
  150   4    14.857200  9.845419  28.240601
  151   4    7.283130  11.261560  28.250511
  152   4    12.308200  11.281223  28.203106
  153   4    9.766370  12.713994  28.246435
  154   4    7.212130  14.079016  28.278969
  155   4    12.266600  14.131761  28.150831
  156   1    15.281700  5.008214  27.485449
  157   1    15.321600  5.880009  29.080280
  158   2    15.920900  5.615598  28.176146
  159   1    9.550370  1.573312  26.388020
  160   1    8.909870  3.188848  26.394133
  161   2    8.631170  2.141077  26.474041
  162   3    17.308400  4.771003  28.488182
  163   2    7.942170  1.748230  27.891922
  164   1    7.705350  0.687682  27.943474
  165   1    7.008220  2.291317  28.053404
  166   4    9.080770  5.342009  30.591242
  167   4    6.520250  6.853747  30.546721
  168   4    11.550100  6.917891  30.589302
  169   4    9.033270  8.290472  30.568731
  170   4    14.007000  8.454098  30.577295
  171   4    6.512130  9.698944  30.595037
  172   4    11.472000  9.812825  30.540701
  173   4    8.931670  11.201840  30.601620
  174   4    13.972300  11.341068  30.584215
  175   4    6.400020  12.583224  30.677423
  176   4    11.416800  12.682934  30.534494
  177   4    8.817670  14.035059  30.667274
  178   1    17.722900  3.402736  26.685654
  179   1    16.055200  3.011097  27.288727
  180   2    17.102000  3.284659  27.601686
  181   1    9.886070  1.518474  28.913965
  182   1    9.368270  3.159720  28.787306
  183   2    8.997570  2.147869  28.959276
  184   1    17.529000  2.453645  28.234810
  185   2    8.260670  2.005523  30.354383
  186   4    10.783400  5.491164  32.900871
  187   4    8.244370  6.853861  32.905487
  188   4    13.278800  7.017461  32.940891
  189   4    5.748430  8.240678  32.959240
  190   4    10.706200  8.296212  32.926159
  191   4    8.205070  9.689448  33.029636
  192   4    13.170700  9.845433  32.878895
  193   4    5.606590  11.112586  32.973938
  194   4    10.648900  11.178494  32.969986
  195   4    8.104170  12.580092  32.952957
  196   4    13.095300  12.743723  32.917042
  197   4    10.625700  13.975637  32.948582
  198   1    7.686000  1.072796  30.413736
  199   1    7.523800  2.787427  30.456909
  200   1    9.894970  1.109152  31.490067
  201   1    10.082800  2.812599  31.343210
  202   2    9.341870  2.042803  31.521423
  203   1    2.553410  14.305019  35.037571
  204   1    14.432300  14.721332  37.939358
  205   1    3.743690  13.034806  35.707802
  206   1    15.710300  13.730591  37.044353
  207   2    3.330040  14.064646  35.859829
  208   2    15.533800  14.641708  37.693302
  209   4    7.355290  5.299849  35.217175
  210   4    12.437600  5.552334  35.300411
  211   4    9.881870  6.803708  35.310863
  212   4    7.359080  8.179235  35.342804
  213   4    12.367400  8.399743  35.283821
  214   4    4.898430  9.642697  35.326756
  215   4    9.791570  9.709782  35.325169
  216   4    14.850400  9.769392  35.305824
  217   4    7.292740  11.110991  35.304218
  218   4    12.265900  11.210963  35.361458
  219   4    9.811770  12.568477  35.368347
  220   4    7.246140  13.991793  35.314060
  221   4    12.306300  14.123033  35.346123
  222   2    8.547770  2.225731  32.893456
  223   1    7.933970  1.354408  33.101124
  224   1    7.866370  3.099124  32.858097
  225   1    4.138370  14.783769  35.824200
  226   1    15.854300  15.532244  37.060406
  227   3    2.496660  14.112116  37.367832
  228   3    16.618100  14.461281  39.036282
  229   1    9.173370  2.911337  35.103218
  230   1    10.545000  3.143802  33.899040
  231   2    9.655370  2.523756  34.184090
  232   4    9.081070  5.414515  37.654449
  233   4    6.628400  6.780157  37.640858
  234   4    11.527400  6.872474  37.681931
  235   4    9.021070  8.307840  37.676647
  236   4    14.060200  8.355555  37.660286
  237   4    6.497790  9.678668  37.751373
  238   4    11.485500  9.731722  37.661865
  239   4    8.937370  11.140449  37.705605
  240   4    14.006700  11.180626  37.680828
  241   4    6.473420  12.538212  37.675434
  242   4    11.454800  12.681080  37.692780
  243   4    8.899870  14.082010  37.662739
  244   2    2.709250  15.703813  37.779381
  245   2    17.384500  13.026514  38.842884
  246   1    2.760980  16.401562  36.930569
  247   1    17.116800  12.505601  37.877441
  248   1    1.808200  15.946245  38.417091
  249   1    18.501300  13.173690  38.865498
  250   3    10.214000  0.948778  34.473736
  251   1    2.688920  4.983658  43.146683
  252   1    4.378710  5.356819  42.615486
  253   1    5.027860  15.463470  37.883900
  254   1    15.617200  12.083982  40.053589
  255   1    4.331370  16.522579  39.179241
  256   1    17.149100  11.233532  40.340687
  257   2    4.208720  15.560041  38.612579
  258   2    16.692000  12.226373  40.216843
  259   1    11.690400  1.363025  32.752472
  260   2    3.785170  5.069134  43.493290
  261   1    12.311900  0.000000  33.822784
  262   2    11.799300  1.027523  33.828678
  263   1    3.926840  5.842244  44.325058
  264   4    10.684400  5.474249  40.003387
  265   4    8.164670  6.886377  40.018620
  266   4    13.171100  6.954435  40.052811
  267   4    5.659150  8.281031  40.066345
  268   4    10.680900  8.328794  40.002388
  269   4    8.163470  9.711508  40.064247
  270   4    13.115700  9.778907  40.038467
  271   4    5.765990  11.159453  40.012657
  272   4    10.620200  11.195523  40.013355
  273   4    8.117570  12.638478  40.060802
  274   4    13.078600  12.668811  40.054234
  275   4    10.534200  14.047174  40.036507
  276   3    4.228140  3.478987  43.909527
  277   1    12.348000  1.774087  34.487156
  278   2    4.170440  14.322401  39.663364
  279   2    17.024200  13.077829  41.604809
  280   1    5.151590  14.258510  40.138592
  281   1    17.668100  13.959036  41.473228
  282   1    4.002650  13.308418  39.258610
  283   1    17.626300  12.425638  42.284035
  284   1    2.997630  15.662702  41.011490
  285   1    15.145100  14.253834  41.837059
  286   1    11.362800  2.115247  44.006157
  287   1    2.021500  14.435598  40.313984
  288   1    14.964300  12.680682  42.317799
  289   1    12.134200  1.273310  42.515461
  290   2    3.036150  14.615545  40.731808
  291   2    15.675100  13.481569  42.338055
  292   2    3.174380  3.086980  45.178547
  293   1    2.711020  3.976704  45.637505
  294   1    2.359820  2.377965  44.827755
  295   2    11.790100  2.256941  42.957977
  296   1    11.114200  2.817899  42.263218
  297   2    3.268050  13.747745  42.010216
  298   2    15.971400  13.984758  43.809959
  299   1    3.819520  2.212843  47.167713
  300   1    4.329430  13.721706  42.246429
  301   1    16.628200  13.307129  44.345215
  302   1    4.748830  1.479631  45.827579
  303   1    2.983150  12.704175  41.820595
  304   1    15.022400  13.991636  44.426044
  305   2    4.330640  2.415446  46.192825
  306   3    13.142400  3.372348  43.325123
  307   1    2.486680  15.485681  43.245132
  308   1    17.546400  15.371527  43.105621
  309   1    1.423570  14.138389  43.093750
  310   1    15.991500  16.119732  43.126808
  311   2    2.465590  14.361517  43.236744
  312   2    16.632700  15.405426  43.667946
  313   2    5.531760  3.559009  46.485176
  314   1    6.169340  3.782437  45.656563
  315   1    6.181630  3.137486  47.244423
  316   2    14.409300  3.032396  42.222630
  317   1    14.371200  1.915800  42.004208
  318   1    14.292200  3.595692  41.272068
  319   2    3.069310  13.796322  44.661503
  320   2    17.000900  15.909128  45.189869
  321   1    3.426110  14.599369  45.321938
  322   1    17.555000  16.836790  45.133560
  323   1    5.602480  5.572667  47.206936
  324   1    4.046990  5.244001  46.458786
  325   1    3.920770  13.097835  44.468353
  326   1    17.606900  15.158247  45.651234
  327   2    4.818340  4.819617  47.105995
  328   1    15.713700  3.259412  44.186974
  329   1    16.659900  3.107669  42.745228
  330   2    15.757600  3.574069  43.164642
  331   1    0.923100  13.622085  45.794140
  332   1    15.789100  16.765026  47.069820
  333   1    2.208740  12.534541  46.464363
  334   1    15.102500  15.128689  46.480953
  335   2    1.810890  12.987535  45.528053
  336   2    15.601000  16.096876  46.205570
  337   2    4.123260  4.424919  48.498913
  338   1    4.815660  3.831565  49.082939
  339   1    3.290520  3.799023  48.279465
  340   2    15.745300  5.168847  42.989761
  341   1    14.785900  5.620107  43.201363
  342   1    15.996900  5.439225  41.955746
  343   1    4.597860  6.445736  49.202724
  344   1    2.945770  6.260528  48.741322
  345   2    3.759340  5.736694  49.231506
  346   3    1.518710  11.868461  44.338593
  347   3    14.741700  16.993418  45.110695
  348   1    17.726200  5.127431  44.011276
  349   1    17.127000  6.694202  43.780453
  350   2    16.808200  5.676977  44.024845
  351   1    1.950860  10.180313  45.879299
  352   1    12.611600  16.726675  46.145210
  353   1    3.517510  10.604830  45.087208
  354   1    13.259100  15.136362  45.358887
  355   2    2.402580  10.491755  44.893627
  356   2    13.179400  16.262848  45.282726
  357   2    3.439860  5.330478  50.779804
  358   1    4.322980  4.887419  51.253490
  359   1    2.642530  4.555853  50.854275
  360   2    16.049500  5.629799  45.389023
  361   1    16.142900  4.641427  45.820602
  362   1    14.969700  5.776735  45.254303
  363   1    2.204580  9.693766  44.126972
  364   1    12.638000  16.534317  44.342880
  365   1    3.450030  7.715795  50.926765
  366   1    3.227940  6.934451  52.595093
  367   2    3.029470  6.851363  51.483189
  368   1    16.587500  7.708260  45.854206
  369   1    15.960400  6.922989  47.251743
  370   2    16.618200  6.761959  46.375271
  371   3    1.379470  6.831343  51.311085
  372   2    18.181400  6.389998  46.767296
  373   1    18.840300  7.195556  46.513805
  374   1    18.525000  5.502937  46.180809
  375   1    1.592590  8.976168  50.506363
  376   1    0.000000  8.266533  49.949986
  377   2    1.098330  8.053282  50.095230
  378   1    18.176800  7.130976  49.056404
  379   1    19.454400  5.868775  48.707226
  380   2    18.470200  6.242802  48.428440
  381   1    1.591190  7.775621  49.139782
  382   3    17.160600  5.234383  48.729465
  383   1    15.904200  5.405989  50.722748
  384   1    15.324200  6.585545  49.412258
  385   2    16.204700  6.123824  49.895443
  386   1    16.816800  6.936343  50.391930
  387   4    10.622300  14.150108  11.772900
  388   4    13.119700  12.708228  11.772900
  389   4    8.124870  12.708228  11.772900
  390   4    10.622300  11.266348  11.772900
  391   4    5.627470  11.266348  11.772900
  392   4    13.119700  9.824468  11.772900
  393   4    8.124870  9.824468  11.772900
  394   4    10.622300  8.382588  11.772900
  395   4    5.627470  8.382588  11.772900
  396   4    13.119700  6.940708  11.772900
  397   4    8.124870  6.940708  11.772900
  398   4    10.622300  5.498828  11.772900
  399   4    8.957370  14.150108  9.418320
  400   4    11.454800  12.708228  9.418320
  401   4    6.459940  12.708228  9.418320
  402   4    13.952200  11.266348  9.418320
  403   4    8.957370  11.266348  9.418320
  404   4    11.454800  9.824468  9.418320
  405   4    6.459940  9.824468  9.418320
  406   4    13.952200  8.382588  9.418320
  407   4    8.957370  8.382588  9.418320
  408   4    11.454800  6.940708  9.418320
  409   4    6.459940  6.940708  9.418320
  410   4    8.957370  5.498828  9.418320
  411   4    12.287300  14.150108  7.063740
  412   4    7.292410  14.150108  7.063740
  413   4    9.789870  12.708228  7.063740
  414   4    12.287300  11.266348  7.063740
  415   4    7.292410  11.266348  7.063740
  416   4    14.784700  9.824468  7.063740
  417   4    9.789870  9.824468  7.063740
  418   4    4.795000  9.824468  7.063740
  419   4    12.287300  8.382588  7.063740
  420   4    7.292410  8.382588  7.063740
  421   4    9.789870  6.940708  7.063740
  422   4    12.287300  5.498828  7.063740
  423   4    7.292410  5.498828  7.063740
  424   4    10.622300  14.150108  4.709160
  425   4    13.119700  12.708228  4.709160
  426   4    8.124870  12.708228  4.709160
  427   4    10.622300  11.266348  4.709160
  428   4    5.627470  11.266348  4.709160
  429   4    13.119700  9.824468  4.709160
  430   4    8.124870  9.824468  4.709160
  431   4    10.622300  8.382588  4.709160
  432   4    5.627470  8.382588  4.709160
  433   4    13.119700  6.940708  4.709160
  434   4    8.124870  6.940708  4.709160
  435   4    10.622300  5.498828  4.709160
  436   4    8.957370  14.150108  2.354580
  437   4    11.454800  12.708228  2.354580
  438   4    6.459940  12.708228  2.354580
  439   4    13.952200  11.266348  2.354580
  440   4    8.957370  11.266348  2.354580
  441   4    11.454800  9.824468  2.354580
  442   4    6.459940  9.824468  2.354580
  443   4    13.952200  8.382588  2.354580
  444   4    8.957370  8.382588  2.354580
  445   4    11.454800  6.940708  2.354580
  446   4    6.459940  6.940708  2.354580
  447   4    8.957370  5.498828  2.354580
  448   4    12.287300  14.150108  0.000000
  449   4    7.292410  14.150108  0.000000
  450   4    9.789870  12.708228  0.000000
  451   4    12.287300  11.266348  0.000000
  452   4    7.292410  11.266348  0.000000
  453   4    14.784700  9.824468  0.000000
  454   4    9.789870  9.824468  0.000000
  455   4    4.795000  9.824468  0.000000
  456   4    12.287300  8.382588  0.000000
  457   4    7.292410  8.382588  0.000000
  458   4    9.789870  6.940708  0.000000
  459   4    12.287300  5.498828  0.000000
  460   4    7.292410  5.498828  0.000000
  461   4    7.292410  5.498828  42.382439
  462   4    12.287300  5.498828  42.382439
  463   4    9.789870  6.940708  42.382439
  464   4    7.292410  8.382588  42.382439
  465   4    12.287300  8.382588  42.382439
  466   4    4.795000  9.824468  42.382439
  467   4    9.789870  9.824468  42.382439
  468   4    14.784700  9.824468  42.382439
  469   4    7.292410  11.266348  42.382439
  470   4    12.287300  11.266348  42.382439
  471   4    9.789870  12.708228  42.382439
  472   4    7.292410  14.150108  42.382439
  473   4    12.287300  14.150108  42.382439
  474   4    8.957370  5.498828  44.737019
  475   4    6.459940  6.940708  44.737019
  476   4    11.454800  6.940708  44.737019
  477   4    8.957370  8.382588  44.737019
  478   4    13.952200  8.382588  44.737019
  479   4    6.459940  9.824468  44.737019
  480   4    11.454800  9.824468  44.737019
  481   4    8.957370  11.266348  44.737019
  482   4    13.952200  11.266348  44.737019
  483   4    6.459940  12.708228  44.737019
  484   4    11.454800  12.708228  44.737019
  485   4    8.957370  14.150108  44.737019
  486   4    10.622300  5.498828  47.091599
  487   4    8.124870  6.940708  47.091599
  488   4    13.119700  6.940708  47.091599
  489   4    5.627470  8.382588  47.091599
  490   4    10.622300  8.382588  47.091599
  491   4    8.124870  9.824468  47.091599
  492   4    13.119700  9.824468  47.091599
  493   4    5.627470  11.266348  47.091599
  494   4    10.622300  11.266348  47.091599
  495   4    8.124870  12.708228  47.091599
  496   4    13.119700  12.708228  47.091599
  497   4    10.622300  14.150108  47.091599
  498   4    7.292410  5.498828  49.446178
  499   4    12.287300  5.498828  49.446178
  500   4    9.789870  6.940708  49.446178
  501   4    7.292410  8.382588  49.446178
  502   4    12.287300  8.382588  49.446178
  503   4    4.795000  9.824468  49.446178
  504   4    9.789870  9.824468  49.446178
  505   4    14.784700  9.824468  49.446178
  506   4    7.292410  11.266348  49.446178
  507   4    12.287300  11.266348  49.446178
  508   4    9.789870  12.708228  49.446178
  509   4    7.292410  14.150108  49.446178
  510   4    12.287300  14.150108  49.446178
  511   4    8.957370  5.498828  51.800758
  512   4    6.459940  6.940708  51.800758
  513   4    11.454800  6.940708  51.800758
  514   4    8.957370  8.382588  51.800758
  515   4    13.952200  8.382588  51.800758
  516   4    6.459940  9.824468  51.800758
  517   4    11.454800  9.824468  51.800758
  518   4    8.957370  11.266348  51.800758
  519   4    13.952200  11.266348  51.800758
  520   4    6.459940  12.708228  51.800758
  521   4    11.454800  12.708228  51.800758
  522   4    8.957370  14.150108  51.800758
  523   4    10.622300  5.498828  54.155338
  524   4    8.124870  6.940708  54.155338
  525   4    13.119700  6.940708  54.155338
  526   4    5.627470  8.382588  54.155338
  527   4    10.622300  8.382588  54.155338
  528   4    8.124870  9.824468  54.155338
  529   4    13.119700  9.824468  54.155338
  530   4    5.627470  11.266348  54.155338
  531   4    10.622300  11.266348  54.155338
  532   4    8.124870  12.708228  54.155338
  533   4    13.119700  12.708228  54.155338
  534   4    10.622300  14.150108  54.155338
}

Transport {
  Device {
    AtomRange = 1 386
  }
  Contact {
    Id = "source"
    AtomRange = 387 460
    FermiLevel [eV] = -4.6653
    WideBand = Yes
    LevelSpacing [eV] = 20.0
  }
  Contact {
    Id = "drain"
    AtomRange = 461 534
    FermiLevel [eV] = -4.6653
    WideBand = Yes
    LevelSpacing [eV] = 20.0
  }
}

Hamiltonian = DFTB {
  SCC = No
  SlaterKosterFiles = Type2FileNames{
    Prefix = "/home/software/qc-prog/DFTBplus/slater_koster/auorg-1-1/"
    Separator = "-"
    Suffix = ".skf"
  }
  MaxAngularMomentum {
    H = "s"
    C = "p"
    S = "d"
    Au = "d"
  }
  Solver = TransportOnly{}
}

Analysis {
  TunnelingAndDOS {
  EnergyRange [eV] = {-10 2}
  EnergyStep [eV] = 0.03
  }
}
