Si Li                                   
   1.00000000000000     
     6.9107608171967820    0.0000000000000000    0.0000000000000000
     0.0000000000000000    6.9107608171967820    0.0000000000000000
     0.0000000000000000    0.0000000000000000    6.9107608171967820
   Si   Li
     8    14
Selective dynamics
Direct
  0.8909155233259298  0.9468293622142809  0.0198223569632816   T   T   T
  0.1451625324767036  0.4530294234441570  0.2745364394962522   T   T   T
  0.6860062062217480  0.4110832017869868  0.8045246672981108   T   T   T
  0.5910909312948149  0.8530114118071310  0.1933734888793524   T   T   T
  0.5135516607915918  0.9597822455230656  0.5165625343403661   T   T   T
  0.7912542858159313  0.0879182480793474  0.7050789588314075   T   T   T
  0.2458873336076337  0.6788025128035002  0.5180864104232299   T   T   T
  0.3327271099273261  0.4810392411502633  0.7956965738483177   T   T   T
  0.5838042965763961  0.7688074258650417  0.8356968646008198   T   T   T
  0.0431973427394112  0.2935391498175832  0.9638071353505282   T   T   T
  0.9615118718304387  0.6845242398339693  0.7682938236174195   T   T   T
  0.4810813394926896  0.4885829203574019  0.1226603935537938   T   T   T
  0.2242491501058268  0.7469345013366038  0.0534344283477068   T   T   T
  0.1693276727727735  0.0149679180388347  0.6844765103435293   T   T   T
  0.9203397049950297  0.8427101619370845  0.4035024210529841   T   T   T
  0.7856178763560848  0.2055880050203882  0.2864368107696862   T   T   T
  0.2401453326156897  0.0773893408746318  0.2577755987617962   T   T   T
  0.4036969391307750  0.3050633462337942  0.4986938542369614   T   T   T
  0.9995265972620331  0.3659811375788635  0.5865856778637806   T   T   T
  0.8393216988747625  0.5865954848045476  0.1122051288097126   T   T   T
  0.4931043581044534  0.1307464528880473  0.9338651294035998   T   T   T
  0.6162213822829514  0.6048188918794963  0.4839179135923644   T   T   T
 
  0.00000000E+00  0.00000000E+00  0.00000000E+00
  0.00000000E+00  0.00000000E+00  0.00000000E+00
  0.00000000E+00  0.00000000E+00  0.00000000E+00
  0.00000000E+00  0.00000000E+00  0.00000000E+00
  0.00000000E+00  0.00000000E+00  0.00000000E+00
  0.00000000E+00  0.00000000E+00  0.00000000E+00
  0.00000000E+00  0.00000000E+00  0.00000000E+00
  0.00000000E+00  0.00000000E+00  0.00000000E+00
  0.00000000E+00  0.00000000E+00  0.00000000E+00
  0.00000000E+00  0.00000000E+00  0.00000000E+00
  0.00000000E+00  0.00000000E+00  0.00000000E+00
  0.00000000E+00  0.00000000E+00  0.00000000E+00
  0.00000000E+00  0.00000000E+00  0.00000000E+00
  0.00000000E+00  0.00000000E+00  0.00000000E+00
  0.00000000E+00  0.00000000E+00  0.00000000E+00
  0.00000000E+00  0.00000000E+00  0.00000000E+00
  0.00000000E+00  0.00000000E+00  0.00000000E+00
  0.00000000E+00  0.00000000E+00  0.00000000E+00
  0.00000000E+00  0.00000000E+00  0.00000000E+00
  0.00000000E+00  0.00000000E+00  0.00000000E+00
  0.00000000E+00  0.00000000E+00  0.00000000E+00
  0.00000000E+00  0.00000000E+00  0.00000000E+00
