Si Li
1.0
  6.459620000000   0.000000000000   0.000000000000
  0.000000000000   6.459620000000   0.000000000000
  0.000000000000   0.000000000000   6.459620000000
Si Li
  8  14
Selective dynamics
Direct
  0.963313811865   0.018943235995   0.041033217651  T T T
  0.200965139374   0.275794295299   0.168007415994  T T T
  0.449245957301   0.390253264511   0.913996191417  T T T
  0.830508942368   0.772023053601   0.287682225301  T T T
  0.591290477598   0.901099607996   0.542103758874  T T T
  0.706284265545   0.140571119973   0.799094905211  T T T
  0.087340020636   0.530514237509   0.410732464294  T T T
  0.345189322545   0.645776676755   0.659081237023  T T T
  0.618320951960   0.787971937529   0.949513214044  T T T
  0.057084239491   0.509331224917   0.804810412888  T T T
  0.922391137760   0.800159532310   0.594805202705  T T T
  0.501537171026   0.363009595208   0.261241396522  T T T
  0.288756840650   0.747080967952   0.034638493766  T T T
  0.183912270072   0.087171176044   0.827551934092  T T T
  0.050598247111   0.099274300826   0.415777134398  T T T
  0.788868581898   0.234201495011   0.192042773739  T T T
  0.338951250909   0.948198371932   0.364675342574  T T T
  0.378944230837   0.341997051375   0.580656823869  T T T
  0.815171718739   0.320191055867   0.494873350522  T T T
  0.779459526412   0.462549064372   0.952383465575  T T T
  0.429563058787   0.033938704784   0.018699207616  T T T
  0.630043983717   0.577694653509   0.505632952310  T T T
