Si Li                                   
   1.00000000000000     
     6.3119944065002294    0.0000000000000000    0.0000000000000000
     0.0000000000000000    6.3119944065002294    0.0000000000000000
     0.0000000000000000    0.0000000000000000    6.3119944065002294
   Si   Li
     8     7
Selective dynamics
Direct
  0.9363975042549869  0.0402692792592438  0.0448231831946402   T   T   T
  0.1724807862510846  0.1925431135320569  0.2959221339829284   T   T   T
  0.5520930561553172  0.5588713877835327  0.9420601555093204   T   T   T
  0.6854183737134211  0.8043892476828558  0.1973288509272125   T   T   T
  0.4177985461529857  0.9371737473887782  0.4294444512290920   T   T   T
  0.7838271510459680  0.2908711076968640  0.8089937216580592   T   T   T
  0.0389704732653360  0.4245145749555457  0.5633488920638422   T   T   T
  0.3071036455225430  0.6691037250998920  0.6740829525639820   T   T   T
  0.4129586191070425  0.2705402743803123  0.6550595238994804   T   T   T
  0.0008883169726438  0.6217473836060687  0.9630050701821826   T   T   T
  0.0173714095887636  0.9747605764928617  0.6258531028437055   T   T   T
  0.7054535504115176  0.6495759595922049  0.5677250081769640   T   T   T
  0.6949830099957784  0.2801461657741657  0.2840999948972872   T   T   T
  0.3549066927205285  0.9584286269572347  0.9798133931062646   T   T   T
  0.3257941686700767  0.5635659976173620  0.2751457872080539   T   T   T
 
  0.00000000E+00  0.00000000E+00  0.00000000E+00
  0.00000000E+00  0.00000000E+00  0.00000000E+00
  0.00000000E+00  0.00000000E+00  0.00000000E+00
  0.00000000E+00  0.00000000E+00  0.00000000E+00
  0.00000000E+00  0.00000000E+00  0.00000000E+00
  0.00000000E+00  0.00000000E+00  0.00000000E+00
  0.00000000E+00  0.00000000E+00  0.00000000E+00
  0.00000000E+00  0.00000000E+00  0.00000000E+00
  0.00000000E+00  0.00000000E+00  0.00000000E+00
  0.00000000E+00  0.00000000E+00  0.00000000E+00
  0.00000000E+00  0.00000000E+00  0.00000000E+00
  0.00000000E+00  0.00000000E+00  0.00000000E+00
  0.00000000E+00  0.00000000E+00  0.00000000E+00
  0.00000000E+00  0.00000000E+00  0.00000000E+00
  0.00000000E+00  0.00000000E+00  0.00000000E+00
