Si Li
1.0
  5.453060000000   0.000000000000   0.000000000000
  0.000000000000   5.453060000000   0.000000000000
  0.000000000000   0.000000000000   5.453060000000
Si Li
  8   7
Selective dynamics
Direct
  0.000000000000   0.000000000000   0.000000000000  T T T
  0.250000183383   0.250000183383   0.250000183383  T T T
  0.500000000000   0.500000000000   0.000000000000  T T T
  0.750000183383   0.750000183383   0.250000183383  T T T
  0.500000000000   0.000000000000   0.500000000000  T T T
  0.750000183383   0.250000183383   0.750000183383  T T T
  0.000000000000   0.500000000000   0.500000000000  T T T
  0.250000183383   0.750000183383   0.750000183383  T T T
  0.326714861106   0.271906521384   0.705676765633  T T T
  0.939276982483   0.409471882338   0.025995125618  T T T
  0.061356979054   0.920072138524   0.391952306650  T T T
  0.705353904487   0.702207681485   0.699650487616  T T T
  0.664857336101   0.277347909357   0.282249400850  T T T
  0.497265506651   0.009440621889   0.025206179430  T T T
  0.211619000414   0.646053679310   0.175975222114  T T T
