Li Si                                   
   1.00000000000000     
    10.4080477560050007    0.0000000000000000    0.0000000000000000
     0.0000000000000000   10.4080477560050007    0.0000000000000000
     0.0000000000000000    0.0000000000000000   10.4080477560050007
   Li   Si
    59    16
Selective dynamics
Direct
  0.7867653433044158  0.4059833006940581  0.8718368615432557   T   T   T
  0.7138482158916307  0.4055432738116214  0.1278860775533877   T   T   T
  0.7843409413013710  0.5956411614750530  0.6279416447922560   T   T   T
  0.2260678214513816  0.0908277017981820  0.8572937653604578   T   T   T
  0.6139133500565817  0.1590117986918182  0.5367151847006273   T   T   T
  0.3800374942087634  0.6586633619869914  0.9645236504382465   T   T   T
  0.8793881565351874  0.8442163218320360  0.0357319818707284   T   T   T
  0.6221499220942035  0.8453150495955289  0.9635781983023753   T   T   T
  0.8715742374738168  0.7854501181001223  0.4066998204752940   T   T   T
  0.1279804879532466  0.7148767020104283  0.4057362181343671   T   T   T
  0.6264668686830868  0.7890616433683927  0.5988701977446894   T   T   T
  0.8744801286217355  0.2139213035828417  0.0945429239955223   T   T   T
  0.5353889645165857  0.6184660749576364  0.1557060310210154   T   T   T
  0.9601809656732241  0.3803663787188952  0.6560734444796354   T   T   T
  0.0361094142259807  0.8792453206999296  0.8434027240650794   T   T   T
  0.9661718241440175  0.6199394982653539  0.8431432082020062   T   T   T
  0.4022490469811638  0.8824392402419380  0.7845706328440238   T   T   T
  0.5935208084852901  0.6284849004361758  0.7867467757854346   T   T   T
  0.0940810144145739  0.8718963975538752  0.2136485105192084   T   T   T
  0.1537934615381995  0.5388095498824677  0.6220938836080629   T   T   T
  0.6574797797730463  0.9646602090362043  0.3813456174083631   T   T   T
  0.8413532801922915  0.0348662446847027  0.8779264054291241   T   T   T
  0.8394883466417575  0.9653398788755537  0.6234074823810071   T   T   T
  0.0019014052092338  0.2488655006507754  0.8739650647438242   T   T   T
 -0.0026895891650199  0.7511047004897119  0.6252782083728451   T   T   T
  0.6122977277182754  0.0124320014206581  0.7493998968265470   T   T   T
  0.8762885264071327  0.0007478205803477  0.2508500543982306   T   T   T
  0.7509541717798559  0.6245662801752607 -0.0011156640463351   T   T   T
  0.2515105856771968  0.8760308602192692  0.0026910131903272   T   T   T
  0.2844914192126142  0.9090069590577260  0.3704563073974446   T   T   T
  0.2118828938771505  0.9011830420419547  0.6236038409086165   T   T   T
  0.2853791922138123  0.0969116759144692  0.1246312155257815   T   T   T
  0.7143057470989030  0.5924077174080126  0.3721008290661745   T   T   T
  0.1213530306223968  0.6574986926417981  0.0360983448936531   T   T   T
  0.8758121959812960  0.1554330231463177  0.4649022089904638   T   T   T
  0.3795993590342936  0.3401910250791085  0.5420850129549966   T   T   T
  0.1213987994837573  0.3431335716569056  0.4661419469151108   T   T   T
  0.3867435431522418  0.2711753274152211  0.8757188160527666   T   T   T
  0.6343751647167426  0.2134592919759436  0.9124204817705313   T   T   T
  0.1308506559214346  0.2849769231850290  0.0916691475439396   T   T   T
  0.3734031578143164  0.7154488886770888  0.5968278687243742   T   T   T
  0.0328472598366738  0.1230131026373694  0.6550392613484952   T   T   T
  0.4657978131716966  0.8754201184754223  0.1621152999415587   T   T   T
  0.5342032095501176  0.3774424290346483  0.3443079154539270   T   T   T
  0.4636037539045919  0.1181457156814636  0.3378756642733635   T   T   T
  0.9058886287513920  0.3713105205979010  0.2863387696301077   T   T   T
  0.9066580333062506  0.6276748617038171  0.2146796132633201   T   T   T
  0.0965709779099410  0.1290761264670184  0.2873239448893428   T   T   T
  0.5964861267572839  0.3723503828313507  0.7157101966914695   T   T   T
  0.6576113936701128  0.0340042819321501  0.1260328994336573   T   T   T
  0.1607800990314948  0.4643725369281206  0.8819751138305704   T   T   T
  0.3421890049254039  0.5330881446632519  0.3814005936842569   T   T   T
  0.3432725674880492  0.4614130725715019  0.1194393449768338   T   T   T
  0.4998559055967497  0.7444114868030161  0.3755018572781778   T   T   T
  0.4965366466089322  0.2509610820400366  0.1219075597400667   T   T   T
  0.1248983500592479  0.4988676109936712  0.2507658087591257   T   T   T
  0.3734125682629803  0.5028994570566715  0.7492519638134337   T   T   T
  0.2549297611564656  0.1251787938189983  0.5104456475679864   T   T   T
  0.7493455966086023  0.3752842950374421  0.5002604218196314   T   T   T
  0.4565252816516201  0.9574057663495499  0.5392881435026050   T   T   T
  0.5401259070999492  0.4563187253502870  0.9568654436464015   T   T   T
  0.9575771932955727  0.5421326776409747  0.4583325777524186   T   T   T
  0.5412172638760337  0.5412675951630854  0.5421041977584563   T   T   T
  0.2915399458171620  0.7064412579172259  0.2095336206771666   T   T   T
  0.7080721452215488  0.2092156415498525  0.2912144554974855   T   T   T
  0.1996828978335627  0.2977669857129319  0.7067290347947918   T   T   T
  0.7922963549225245  0.7907584432278358  0.7925718177471626   T   T   T
  0.9592945561213038  0.4581415106408984  0.0423319272682559   T   T   T
  0.0394061217370377  0.9593502122378236  0.4584225116544691   T   T   T
  0.4625034848719388  0.0379362686491657  0.9685988718483565   T   T   T
  0.0444442292997708  0.0419093558903090  0.0387556844508275   T   T   T
  0.7906891485296168  0.2085658652797601  0.7080727442047450   T   T   T
  0.2092744104462705  0.7106945348526847  0.7921739210495088   T   T   T
  0.7091184840747139  0.7898087318659646  0.2093424283217799   T   T   T
  0.2919356513202026  0.2914478452623950  0.2944014435607818   T   T   T
 
  0.00000000E+00  0.00000000E+00  0.00000000E+00
  0.00000000E+00  0.00000000E+00  0.00000000E+00
  0.00000000E+00  0.00000000E+00  0.00000000E+00
  0.00000000E+00  0.00000000E+00  0.00000000E+00
  0.00000000E+00  0.00000000E+00  0.00000000E+00
  0.00000000E+00  0.00000000E+00  0.00000000E+00
  0.00000000E+00  0.00000000E+00  0.00000000E+00
  0.00000000E+00  0.00000000E+00  0.00000000E+00
  0.00000000E+00  0.00000000E+00  0.00000000E+00
  0.00000000E+00  0.00000000E+00  0.00000000E+00
  0.00000000E+00  0.00000000E+00  0.00000000E+00
  0.00000000E+00  0.00000000E+00  0.00000000E+00
  0.00000000E+00  0.00000000E+00  0.00000000E+00
  0.00000000E+00  0.00000000E+00  0.00000000E+00
  0.00000000E+00  0.00000000E+00  0.00000000E+00
  0.00000000E+00  0.00000000E+00  0.00000000E+00
  0.00000000E+00  0.00000000E+00  0.00000000E+00
  0.00000000E+00  0.00000000E+00  0.00000000E+00
  0.00000000E+00  0.00000000E+00  0.00000000E+00
  0.00000000E+00  0.00000000E+00  0.00000000E+00
  0.00000000E+00  0.00000000E+00  0.00000000E+00
  0.00000000E+00  0.00000000E+00  0.00000000E+00
  0.00000000E+00  0.00000000E+00  0.00000000E+00
  0.00000000E+00  0.00000000E+00  0.00000000E+00
  0.00000000E+00  0.00000000E+00  0.00000000E+00
  0.00000000E+00  0.00000000E+00  0.00000000E+00
  0.00000000E+00  0.00000000E+00  0.00000000E+00
  0.00000000E+00  0.00000000E+00  0.00000000E+00
  0.00000000E+00  0.00000000E+00  0.00000000E+00
  0.00000000E+00  0.00000000E+00  0.00000000E+00
  0.00000000E+00  0.00000000E+00  0.00000000E+00
  0.00000000E+00  0.00000000E+00  0.00000000E+00
  0.00000000E+00  0.00000000E+00  0.00000000E+00
  0.00000000E+00  0.00000000E+00  0.00000000E+00
  0.00000000E+00  0.00000000E+00  0.00000000E+00
  0.00000000E+00  0.00000000E+00  0.00000000E+00
  0.00000000E+00  0.00000000E+00  0.00000000E+00
  0.00000000E+00  0.00000000E+00  0.00000000E+00
  0.00000000E+00  0.00000000E+00  0.00000000E+00
  0.00000000E+00  0.00000000E+00  0.00000000E+00
  0.00000000E+00  0.00000000E+00  0.00000000E+00
  0.00000000E+00  0.00000000E+00  0.00000000E+00
  0.00000000E+00  0.00000000E+00  0.00000000E+00
  0.00000000E+00  0.00000000E+00  0.00000000E+00
  0.00000000E+00  0.00000000E+00  0.00000000E+00
  0.00000000E+00  0.00000000E+00  0.00000000E+00
  0.00000000E+00  0.00000000E+00  0.00000000E+00
  0.00000000E+00  0.00000000E+00  0.00000000E+00
  0.00000000E+00  0.00000000E+00  0.00000000E+00
  0.00000000E+00  0.00000000E+00  0.00000000E+00
  0.00000000E+00  0.00000000E+00  0.00000000E+00
  0.00000000E+00  0.00000000E+00  0.00000000E+00
  0.00000000E+00  0.00000000E+00  0.00000000E+00
  0.00000000E+00  0.00000000E+00  0.00000000E+00
  0.00000000E+00  0.00000000E+00  0.00000000E+00
  0.00000000E+00  0.00000000E+00  0.00000000E+00
  0.00000000E+00  0.00000000E+00  0.00000000E+00
  0.00000000E+00  0.00000000E+00  0.00000000E+00
  0.00000000E+00  0.00000000E+00  0.00000000E+00
  0.00000000E+00  0.00000000E+00  0.00000000E+00
  0.00000000E+00  0.00000000E+00  0.00000000E+00
  0.00000000E+00  0.00000000E+00  0.00000000E+00
  0.00000000E+00  0.00000000E+00  0.00000000E+00
  0.00000000E+00  0.00000000E+00  0.00000000E+00
  0.00000000E+00  0.00000000E+00  0.00000000E+00
  0.00000000E+00  0.00000000E+00  0.00000000E+00
  0.00000000E+00  0.00000000E+00  0.00000000E+00
  0.00000000E+00  0.00000000E+00  0.00000000E+00
  0.00000000E+00  0.00000000E+00  0.00000000E+00
  0.00000000E+00  0.00000000E+00  0.00000000E+00
  0.00000000E+00  0.00000000E+00  0.00000000E+00
  0.00000000E+00  0.00000000E+00  0.00000000E+00
  0.00000000E+00  0.00000000E+00  0.00000000E+00
  0.00000000E+00  0.00000000E+00  0.00000000E+00
  0.00000000E+00  0.00000000E+00  0.00000000E+00
