Li Si
1.0
 10.408047756005   0.000000000000   0.000000000000
  0.000000000000  10.408047756005   0.000000000000
  0.000000000000   0.000000000000  10.408047756005
Li Si
 59  16
Selective dynamics
Direct
  0.786256535014   0.404721366368   0.871674168900  T T T
  0.713743464986   0.404721366368   0.128325831100  T T T
  0.786256535014   0.595278633632   0.628325831100  T T T
  0.213743464986   0.095278633632   0.871674168900  T T T
  0.621674168900   0.154721366368   0.536256535014  T T T
  0.378325831100   0.654721366368   0.963743464986  T T T
  0.878325831100   0.845278633632   0.036256535014  T T T
  0.621674168900   0.845278633632   0.963743464986  T T T
  0.871674168900   0.786256535014   0.404721366368  T T T
  0.128325831100   0.713743464986   0.404721366368  T T T
  0.628325831100   0.786256535014   0.595278633632  T T T
  0.871674168900   0.213743464986   0.095278633632  T T T
  0.536256535014   0.621674168900   0.154721366368  T T T
  0.963743464986   0.378325831100   0.654721366368  T T T
  0.036256535014   0.878325831100   0.845278633632  T T T
  0.963743464986   0.621674168900   0.845278633632  T T T
  0.404721366368   0.871674168900   0.786256535014  T T T
  0.595278633632   0.628325831100   0.786256535014  T T T
  0.095278633632   0.871674168900   0.213743464986  T T T
  0.154721366368   0.536256535014   0.621674168900  T T T
  0.654721366368   0.963743464986   0.378325831100  T T T
  0.845278633632   0.036256535014   0.878325831100  T T T
  0.845278633632   0.963743464986   0.621674168900  T T T
  0.000000000000   0.250000000000   0.875000000000  T T T
  0.000000000000   0.750000000000   0.625000000000  T T T
  0.625000000000   0.000000000000   0.750000000000  T T T
  0.875000000000   0.000000000000   0.250000000000  T T T
  0.750000000000   0.625000000000   0.000000000000  T T T
  0.250000000000   0.875000000000   0.000000000000  T T T
  0.286256535014   0.904721366368   0.371674168900  T T T
  0.213743464986   0.904721366368   0.628325831100  T T T
  0.286256535014   0.095278633632   0.128325831100  T T T
  0.713743464986   0.595278633632   0.371674168900  T T T
  0.121674168900   0.654721366368   0.036256535014  T T T
  0.878325831100   0.154721366368   0.463743464986  T T T
  0.378325831100   0.345278633632   0.536256535014  T T T
  0.121674168900   0.345278633632   0.463743464986  T T T
  0.371674168900   0.286256535014   0.904721366368  T T T
  0.628325831100   0.213743464986   0.904721366368  T T T
  0.128325831100   0.286256535014   0.095278633632  T T T
  0.371674168900   0.713743464986   0.595278633632  T T T
  0.036256535014   0.121674168900   0.654721366368  T T T
  0.463743464986   0.878325831100   0.154721366368  T T T
  0.536256535014   0.378325831100   0.345278633632  T T T
  0.463743464986   0.121674168900   0.345278633632  T T T
  0.904721366368   0.371674168900   0.286256535014  T T T
  0.904721366368   0.628325831100   0.213743464986  T T T
  0.095278633632   0.128325831100   0.286256535014  T T T
  0.595278633632   0.371674168900   0.713743464986  T T T
  0.654721366368   0.036256535014   0.121674168900  T T T
  0.154721366368   0.463743464986   0.878325831100  T T T
  0.345278633632   0.536256535014   0.378325831100  T T T
  0.345278633632   0.463743464986   0.121674168900  T T T
  0.500000000000   0.750000000000   0.375000000000  T T T
  0.500000000000   0.250000000000   0.125000000000  T T T
  0.125000000000   0.500000000000   0.250000000000  T T T
  0.375000000000   0.500000000000   0.750000000000  T T T
  0.250000000000   0.125000000000   0.500000000000  T T T
  0.750000000000   0.375000000000   0.500000000000  T T T
  0.457681930864   0.957681930864   0.542318069136  T T T
  0.542318069136   0.457681930864   0.957681930864  T T T
  0.957681930864   0.542318069136   0.457681930864  T T T
  0.542318069136   0.542318069136   0.542318069136  T T T
  0.292318069136   0.707681930864   0.207681930864  T T T
  0.707681930864   0.207681930864   0.292318069136  T T T
  0.207681930864   0.292318069136   0.707681930864  T T T
  0.792318069136   0.792318069136   0.792318069136  T T T
  0.957681930864   0.457681930864   0.042318069136  T T T
  0.042318069136   0.957681930864   0.457681930864  T T T
  0.457681930864   0.042318069136   0.957681930864  T T T
  0.042318069136   0.042318069136   0.042318069136  T T T
  0.792318069136   0.207681930864   0.707681930864  T T T
  0.207681930864   0.707681930864   0.792318069136  T T T
  0.707681930864   0.792318069136   0.207681930864  T T T
  0.292318069136   0.292318069136   0.292318069136  T T T
