# ReaxFF Hugoniostat MD

units real
boundary p p p
newton on
atom_style full
neighbor 2.0 bin
neigh_modify delay 1
atom_modify map array
box tilt large
read_data ./LLM105.data

# Potential Parameters

pair_style reax/c NULL lgvdw yes checkqeq yes safezone 20.0 mincap 1000
pair_coeff * * ./ffield_reaxFFlg_nitramines N C O H

compute reax all pair reax/c
fix 10 all qeq/reax 1 0.0 10.0 1.0e-6 reax/c

variable Phug equal 300000

variable eb equal c_reax[1]
variable ev equal c_reax[5]

#####################################################
thermo_style custom step temp pe press density vol lx ly lz
thermo 100

timestep 0.10

fix myhug all nphug temp 7.0 7.0 10.0 z ${Phug} ${Phug} 100.0

# Define output

variable dele equal f_myhug[1] # energy delta [temperature]
variable us equal f_myhug[2] # shock velocity [distance/time]
variable up equal f_myhug[3] # particle velocity [distance/time]
variable pzz equal pzz # axial stress
variable tau equal 0.5*(pzz-0.5*(pxx+pyy)) # shear stress
variable time equal dt*step

thermo_style custom elaplong pe ke etotal temp density vol press pxx pyy pzz pxy pxz pyz lx ly lz v_tau f_myhug
v_dele v_us v_up v_eb v_ev
thermo 100

fix rbo all reax/c/bonds 500 bonds.txt

fix spe1 all reax/c/species 1 1 500 species.out element N C O H

fix stress all print 10 "${time} ${pzz} ${tau} " screen no append stress_vs_t.dat title '#time pzz tau (no drag)'

dump dhug all custom 500 Dump.dump id type x y z q vx vy vz
dump_modify dhug sort id

restart 100000 hug.*.rst

run 2000000
