# ReaxFF Isothermal MD simulation

units real
atom_style full
boundary p p p
newton on
atom_modify map array
###CREATING SIM CELL#####

box tilt large

read_data ./LLM105.data

replicate 2 1 1

###REACTIVE FORCE FIELD###

pair_style reax/c NULL lgvdw yes checkqeq yes safezone 20.0 mincap 1000
pair_coeff * * ./ffield_reaxFFlg_nitramines N C O H

fix 4 all qeq/reax 1 0.0 10.0 1.0e-6 reax/c

neighbor 2.0 bin
neigh_modify delay 2

thermo_modify line one flush yes

fix spe1 all reax/c/species 1 1 500 species.out element N C O H
fix rbo all reax/c/bonds 500 bonds.txt
dump dhug all custom 500 Dump.*.dump id type x y z q vx vy vz

fix 7 all nvt temp 2000 2000 100

timestep 0.1
thermo 100
thermo_style custom elaplong pe ke etotal temp density press pxx pyy pzz pxy pxz pyz lx ly lz
restart 10000 restart.*.restart

run 2000000
