Si Li                                   
   1.00000000000000     
     7.0025641970769996    0.0000000000000000    0.0000000000000000
     0.0000000000000000    7.0025641970769996    0.0000000000000000
     0.0000000000000000    0.0000000000000000    7.0025641970769996
   Si   Li
     8    15
Selective dynamics
Direct
  0.0336334546506123  0.9308133349954630  0.0179294679946054   T   T   T
  0.2254986919994195  0.1662450657864412  0.2175865640680996   T   T   T
  0.4393374990758900  0.3845188180504948  0.0347493822883322   T   T   T
  0.6525875552261411  0.8049054073683806  0.4347574298250478   T   T   T
  0.4114140553719778  0.0518323213337553  0.5078817347635507   T   T   T
  0.6024558200176671  0.2893247802641028  0.7404200356480644   T   T   T
  0.0167768803640769  0.3959436892265771  0.3625945548239145   T   T   T
  0.5104025343027132  0.6376472807913700  0.7025695981511006   T   T   T
  0.8447382467863491  0.2623510986895852  0.0246031760107144   T   T   T
  0.9948898202976153  0.7456930196603082  0.3271331331700011   T   T   T
  0.1739591722848175  0.8093377479697139  0.6878246332391100   T   T   T
  0.9623978305975314  0.1750532766546442  0.6820730657540892   T   T   T
  0.7262657224821254  0.6478705128000826  0.0817636514783828   T   T   T
  0.3694642435886095  0.7549740325402965  0.0155573809575813   T   T   T
  0.2541237142955097  0.4059843101823972  0.6679280903393376   T   T   T
  0.3097489606630006  0.0996912970162214  0.8617612975860567   T   T   T
  0.8636332747103523  0.5568134081250662  0.6611477120908447   T   T   T
  0.5662753422889821  0.0492232201486971  0.1639424500145665   T   T   T
  0.3411256096147923  0.6052825337074523  0.3578598510239104   T   T   T
  0.8861556942196884  0.0661390945980571  0.3437910726238442   T   T   T
  0.1019298458170539  0.5351909879635315  0.0282586654357431   T   T   T
  0.7193623035355472  0.9256763990418477  0.7850218049265933   T   T   T
  0.6425119035695843  0.3948856284365192  0.3792021185775099   T   T   T
 
  0.00000000E+00  0.00000000E+00  0.00000000E+00
  0.00000000E+00  0.00000000E+00  0.00000000E+00
  0.00000000E+00  0.00000000E+00  0.00000000E+00
  0.00000000E+00  0.00000000E+00  0.00000000E+00
  0.00000000E+00  0.00000000E+00  0.00000000E+00
  0.00000000E+00  0.00000000E+00  0.00000000E+00
  0.00000000E+00  0.00000000E+00  0.00000000E+00
  0.00000000E+00  0.00000000E+00  0.00000000E+00
  0.00000000E+00  0.00000000E+00  0.00000000E+00
  0.00000000E+00  0.00000000E+00  0.00000000E+00
  0.00000000E+00  0.00000000E+00  0.00000000E+00
  0.00000000E+00  0.00000000E+00  0.00000000E+00
  0.00000000E+00  0.00000000E+00  0.00000000E+00
  0.00000000E+00  0.00000000E+00  0.00000000E+00
  0.00000000E+00  0.00000000E+00  0.00000000E+00
  0.00000000E+00  0.00000000E+00  0.00000000E+00
  0.00000000E+00  0.00000000E+00  0.00000000E+00
  0.00000000E+00  0.00000000E+00  0.00000000E+00
  0.00000000E+00  0.00000000E+00  0.00000000E+00
  0.00000000E+00  0.00000000E+00  0.00000000E+00
  0.00000000E+00  0.00000000E+00  0.00000000E+00
  0.00000000E+00  0.00000000E+00  0.00000000E+00
  0.00000000E+00  0.00000000E+00  0.00000000E+00
