Si Li
1.0
  6.459620000000   0.000000000000   0.000000000000
  0.000000000000   6.459620000000   0.000000000000
  0.000000000000   0.000000000000   6.459620000000
Si Li
  8  15
Selective dynamics
Direct
  0.963313811865   0.018943235995   0.041033217651  T T T
  0.200965139374   0.275794295299   0.168007415994  T T T
  0.449245957301   0.390253264511   0.913996191417  T T T
  0.830508942368   0.772023053601   0.287682225301  T T T
  0.591290477598   0.901099607996   0.542103758874  T T T
  0.706284265545   0.140571119973   0.799094905211  T T T
  0.087340020636   0.530514237509   0.410732464294  T T T
  0.345189322545   0.645776676755   0.659081237023  T T T
  0.794540346383   0.307692593233   0.253072690452  T T T
  0.300457913685   0.894799433109   0.329117869952  T T T
  0.874704165555   0.888556685022   0.703416544843  T T T
  0.932117332351   0.489304006613   0.749034221131  T T T
  0.796700115657   0.746936903657   0.957051408179  T T T
  0.321876010555   0.709065263189   0.070928940557  T T T
  0.300062022874   0.118978086374   0.562333099455  T T T
  0.251089246643   0.010167490363   0.915783576124  T T T
  0.673899594357   0.500587720563   0.459125416371  T T T
  0.680566733631   0.012681177902   0.171261078933  T T T
  0.407318458253   0.476173142089   0.245507789715  T T T
  0.029890862079   0.270234508516   0.578445046752  T T T
  0.087452448642   0.530628813382   0.060687447512  T T T
  0.532356598066   0.857534515637   0.871759801691  T T T
  0.491518389797   0.207081434063   0.337100523359  T T T
