# ReaxFF Hugoniostat MD

units real
atom_style full
boundary p p p
newton on
atom_modify map array

###CREATING SIM CELL#####
box tilt large
read_data ./LLM105.data
replicate 2 1 1

###REACTIVE FORCE FIELD###
pair_style reax/c NULL lgvdw yes checkqeq yes safezone 20.0 mincap 1000
pair_coeff * * ./ffield_reaxFFlg_nitramines N C O H

fix 10 all qeq/reax 1 0.0 10.0 1.0e-6 reax/c

neighbor 2.0 bin
neigh_modify delay 1

compute reax all pair reax/c

variable eb equal c_reax[1]
variable ev equal c_reax[5]

variable Phug equal 300000

velocity all create 2000.0 4928459 rot yes dist gaussian # set temperature = 2000 [K]
#####################################################
thermo_style custom step temp pe press density vol lx ly lz
thermo 100

timestep 0.10

fix myhug all nphug temp 7.0 7.0 10.0 z ${Phug} ${Phug} 100.0

# Define output

variable dele equal f_myhug[1] # energy delta [temperature]
variable us equal f_myhug[2] # shock velocity [distance/time]
variable up equal f_myhug[3] # particle velocity [distance/time]
variable pzz equal pzz # axial stress
variable tau equal 0.5*(pzz-0.5*(pxx+pyy)) # shear stress
variable time equal dt*step

thermo_style custom elaplong pe ke etotal temp density vol press pxx pyy pzz pxy pxz pyz lx ly lz v_tau f_myhug v_dele v_us v_up v_eb v_ev
thermo 100

fix spe1 all reax/c/species 1 1 500 species.out element N C O H
fix rbo all reax/c/bonds 500 bonds.txt

fix stress all print 10 "${time} ${pzz} ${tau} " screen no append stress_vs_t.dat title '#time pzz tau (no drag)'

dump dhug all custom 500 Dump.dump id type x y z q vx vy vz
dump_modify dhug sort id

dump d1 all cfg 500 cfg/run.*.cfg mass type xs ys zs id type q vx vy vz fx fy fz
dump_modify d1 element N C O H

restart 100000 hug.*.rst

run 2000000