Si Li                                   
   1.00000000000000     
     5.7646847014776759    0.0000000000000000    0.0000000000000000
     0.0000000000000000    5.7646847014776759    0.0000000000000000
     0.0000000000000000    0.0000000000000000    5.7646847014776759
   Si   Li
     8     4
Selective dynamics
Direct
  0.9990586698542027  0.0215131013071686  0.0010477890917389   T   T   T
  0.2450908046478286  0.2706601063227740  0.2506995085960180   T   T   T
  0.4993441130101287  0.5203241598092075  0.0034397850367045   T   T   T
  0.7582076240453786  0.7840479725377670  0.2778371442761708   T   T   T
  0.4839748687291615  0.9934683128868893  0.4867634181494027   T   T   T
  0.7450196859775901  0.2691288719572305  0.7519960003625709   T   T   T
  0.9902468376486937  0.5397984555458745  0.5137095540358635   T   T   T
  0.2522013771270656  0.7591160232168330  0.7321623525250630   T   T   T
  0.4958437768907298  0.9836707128171809  0.9993934049381771   T   T   T
  0.9885820625659469  0.5536767613220622  0.0043871223318562   T   T   T
  0.7481844763452477  0.2712295251785427  0.2887564571592476   T   T   T
  0.2563250388690294  0.2684480940295001  0.7179074533171864   T   T   T
 
  0.00000000E+00  0.00000000E+00  0.00000000E+00
  0.00000000E+00  0.00000000E+00  0.00000000E+00
  0.00000000E+00  0.00000000E+00  0.00000000E+00
  0.00000000E+00  0.00000000E+00  0.00000000E+00
  0.00000000E+00  0.00000000E+00  0.00000000E+00
  0.00000000E+00  0.00000000E+00  0.00000000E+00
  0.00000000E+00  0.00000000E+00  0.00000000E+00
  0.00000000E+00  0.00000000E+00  0.00000000E+00
  0.00000000E+00  0.00000000E+00  0.00000000E+00
  0.00000000E+00  0.00000000E+00  0.00000000E+00
  0.00000000E+00  0.00000000E+00  0.00000000E+00
  0.00000000E+00  0.00000000E+00  0.00000000E+00
