Si Li
1.0
  5.453060000000   0.000000000000   0.000000000000
  0.000000000000   5.453060000000   0.000000000000
  0.000000000000   0.000000000000   5.453060000000
Si Li
  8   4
Selective dynamics
Direct
  0.000000000000   0.000000000000   0.000000000000  T T T
  0.250000183383   0.250000183383   0.250000183383  T T T
  0.500000000000   0.500000000000   0.000000000000  T T T
  0.750000183383   0.750000183383   0.250000183383  T T T
  0.500000000000   0.000000000000   0.500000000000  T T T
  0.750000183383   0.250000183383   0.750000183383  T T T
  0.000000000000   0.500000000000   0.500000000000  T T T
  0.250000183383   0.750000183383   0.750000183383  T T T
  0.557121105196   0.051633871661   0.090290845690  T T T
  0.856943330185   0.555956582451   0.925971091130  T T T
  0.764203849692   0.296968332257   0.303240102603  T T T
  0.283810317106   0.330522577030   0.708597216865  T T T
