#LAMMPS Input file
# Title
clear

# ----- condition settings -----

variable    temp index 298.0 # K

variable    pres index 1 # 0.1 MPa (atm units)

# -----other settings -----
variable    fs   index 0.5 # 0.5 fs
variable    ps   index 20000 # 20000 fs = 20 ps
variable    nstep equal ${ps}/${fs}
variable    tdamp equal ${fs}*100
variable    pdamp equal ${fs}*1000

# ----- Structure settings -----
units real
atom_style charge
dimension     3
boundary p p p
read_data data.cho
replicate 1 1 1
timestep ${fs}

mass 1 12.0107 # C
mass 2 1.00794 # H
mass 3 15.9994 # O

# ----- Potential settings -----
pair_style  reax/c lmp_control
pair_coeff  * * ffield.reax.cho C H O

#fix   1 all nve
fix   2 all qeq/reax 1 0.0 10.0 1e-6 param.qeq
#fix   3 all temp/berendsen 500.0 500.0 100.0

# ----- Relax calculation (0 K) -----
thermo_style    custom step etotal temp lx vol press
thermo          10

fix             f1 all box/relax iso 0.0
minimize        1.0e-10 0.0 1000 100000
unfix           f1

# ----- Output setting -----
dump            d1 all cfg 100 cfg/run.*.cfg mass type xs ys zs id type
dump_modify     d1 element C H O

# ----- Check equilibriation setting -----
variable        energy equal etotal
variable        temperature equal temp
fix             fout1 all ave/time 1 100 100 v_energy v_temperature file out_energy.txt

# ----- Equilibriation -----
velocity        all create 10.0 123456
fix             f1 all npt temp 10.0 ${temp} ${tdamp} iso 0.0 ${pres} ${pdamp}
run             ${nstep} # 20 ps
unfix           f1

# ----- Calculation -----
# fix            f1 all deform 1 x erate 0.001 remap x
fix             f1 all nvt temp ${temp} ${temp} ${tdamp}
run             ${nstep} # 20 ps
unfix           f1

# ----- Radial Distribution Function -----
compute         distribution all rdf 400  1 1  2 2  3 3  1 2  1 3  2 3  * * # C-C, H-H, O-O, C-H, C-O, H-O, Total
fix             f2 all ave/time 3000 1 3000 c_distribution[*] file out_rdf.txt mode vector

# ----- Mean Square Displacement -----
group           C type 1
compute         Cmsd C msd
fix             f3 all ave/time 1 1 5 c_Cmsd[*] file out_C_msd.txt
group           H type 2
compute         Hmsd H msd
fix             f4 all ave/time 1 1 5 c_Hmsd[*] file out_H_msd.txt
group           O type 3
compute         Omsd O msd
fix             f5 all ave/time 1 1 5 c_Omsd[*] file out_O_msd.txt
compute         allmsd all msd
fix             f6 all ave/time 1 1 5 c_allmsd[*] file out_all_msd.txt

fix             f1 all nvt temp ${temp} ${temp} ${tdamp}
run             3000
