Si Li                                   
   1.00000000000000     
     5.5610626616685934    0.0000000000000000    0.0000000000000000
     0.0000000000000000    5.5610626616685934    0.0000000000000000
     0.0000000000000000    0.0000000000000000    5.5610626616685934
   Si   Li
     8     2
Selective dynamics
Direct
  0.9921767833564914  0.0150761895120226  0.9980227226072884   T   T   T
  0.2236329262756982  0.2648213863623070  0.2483364569949416   T   T   T
  0.4921776040481234  0.5148330746784211  0.9982147271272908   T   T   T
  0.7604322385987032  0.7653147933099262  0.2479528984427475   T   T   T
  0.4921222515907218  0.0149635601023164  0.4986404741513795   T   T   T
  0.7609246326135448  0.2654252509188950  0.7483161992863216   T   T   T
  0.9918986432640509  0.5153494661497433  0.4976781421239664   T   T   T
  0.2234193859576195  0.7643544162894571  0.7485976324526220   T   T   T
  0.4921020664202089  0.5148586501645482  0.4979216167874014   T   T   T
  0.4916504872538425  0.0149780909653643  0.9978033178760413   T   T   T
 
  0.00000000E+00  0.00000000E+00  0.00000000E+00
  0.00000000E+00  0.00000000E+00  0.00000000E+00
  0.00000000E+00  0.00000000E+00  0.00000000E+00
  0.00000000E+00  0.00000000E+00  0.00000000E+00
  0.00000000E+00  0.00000000E+00  0.00000000E+00
  0.00000000E+00  0.00000000E+00  0.00000000E+00
  0.00000000E+00  0.00000000E+00  0.00000000E+00
  0.00000000E+00  0.00000000E+00  0.00000000E+00
  0.00000000E+00  0.00000000E+00  0.00000000E+00
  0.00000000E+00  0.00000000E+00  0.00000000E+00
