Si Li
1.0
  5.453060000000   0.000000000000   0.000000000000
  0.000000000000   5.453060000000   0.000000000000
  0.000000000000   0.000000000000   5.453060000000
Si Li
  8   2
Selective dynamics
Direct
  0.000000000000   0.000000000000   0.000000000000  T T T
  0.250000183383   0.250000183383   0.250000183383  T T T
  0.500000000000   0.500000000000   0.000000000000  T T T
  0.750000183383   0.750000183383   0.250000183383  T T T
  0.500000000000   0.000000000000   0.500000000000  T T T
  0.750000183383   0.250000183383   0.750000183383  T T T
  0.000000000000   0.500000000000   0.500000000000  T T T
  0.250000183383   0.750000183383   0.750000183383  T T T
  0.533359672569   0.539255358643   0.602231642326  T T T
  0.387176613278   0.110718786278   0.879251811992  T T T
