Geometry = GenFormat {
<<< "supercell.gen"
}

Driver = LAMMPS {
 Thermostat = None {
 InitialTemperature[K] = 300.0
 }
 Steps = 50000
 TimeStep [fs] = 0.2
}

Hamiltonian = DFTB {
 ReadInitialCharges = Yes
 TimeReverseCharges = Yes
 SCC = Yes
 SCCTolerance = 1e-6
 MaxSCCIterations = 10
 MaxAngularMomentum = {
 N = "p"
 O = "p"
 C = "p"
 H = "s"
 }
 Charge = 0.0
 SpinPolarisation = {}
 Eigensolver = Standard {}
 Filling = Fermi {
 Temperature [Kelvin] = 300.0
 }
 SlaterKosterFiles = Type2FileNames {
 Prefix = "mio-1-1/"
 Separator = "-"
 Suffix = ".skf"
 LowerCaseTypeName = No
 }
 KPointsAndWeights = {
 0.0000000000000 0.0000000000000 0.0000000000000 1.00000000000000
 }
 Dispersion = LennardJones {
 Parameters = UFFParameters {}
 }
}

Options = {
 WriteDetailedOut = No
 WriteBandOut = No
 RandomSeed = 12345
}

ParserOptions = {
 ParserVersion = 3
