# set file for system relaxation
# REAX potential for Cu/O/H system
#--------------------------------------------general setting --------------------------------------
units		real
boundary    p p f
atom_style	charge
read_data	data.cuo100
pair_style	reax/c lmp_control    
pair_coeff	* * ffield.cuo O O Cu
neighbor	2 bin
neigh_modify	every 10 delay 0 check no
fix  qqq   all  qeq/reax 1 0.0 10.0 1e-6 reax/c
fix wall all wall/lj93 zhi 50 1.0 1.0 2.5 #//define a reflection wall near the top in z axis
#-------------------------------------------------------------------------------------------------------

#--------------------------------------------output setting --------------------------------------
# output
thermo_style    one #custom step etotal temp lx vol press
thermo          50

# ovito settings
dump		d1 all cfg 50 cfg/run.*.cfg mass type xs ys zs id type q
dump_modify	d1 element O O Cu
#-------------------------------------------------------------------------------------------------------

#--------------------------------------packing oxygen molecules --------------------------------

region island2 cone z 30.5 30.5 19 14 10 28 side out units box
region basement2  block 0 62 0 62  0 12 side out units box
region shell1 intersect 2 island2 basement2 
region island3 cone z 30.5 30.5 23 18 10 32 side in units box
region basement3  block 0 62 0 62  0 16 side in units box
region shell2 union 2 island3 basement3 
region modeldel2 intersect 2 shell1 shell2 #// define a region for O2 package

molecule oo o2.txt  #// define an oxygen molecule
create_atoms 0 random  88  1111 modeldel2 mol oo 23345
#-------------------------------------------------------------------------------------------------------

group o1 type 1
group cuo type 2 3

#-----------------------------define a fixed region of CuO layer --------------------------------

region inactive block 0 62 0 62 -1 3 side in units box
group inactive region inactive
velocity inactive set 0 0 0 sum no units box
fix freeze1 inactive setforce 0 0 0

#-------------------------------------------------------------------------------------------------------
group cuo2 subtract cuo inactive

#-----------------------------initial velocity setting ------------------------------------------

velocity  	o1  create 520 42178  sum no
velocity  	cuo2 create 520 42128  sum no
#---------------------------------------------------------------------------------------------------

fix 2 cuo2 nvt temp 520 520  10 
fix 3 o1  nvt temp 520 520  10

restart 10000 cuo.*.model

timestep	0.1
thermo      1000

#-----------------------------output file --------------------------------------------------------

dump	 3 all  xyz  10000  dump.model3.xyz
dump  all2 all  custom 10000 temp.3model123 id type x y z q
#---------------------------------------------------------------------------------------------------

run 160000
 
