Si Li                                   
   1.00000000000000     
     6.5360534089657154    0.0000000000000000    0.0000000000000000
     0.0000000000000000    6.5360534089657154    0.0000000000000000
     0.0000000000000000    0.0000000000000000    6.5360534089657154
   Si   Li
     8    10
Selective dynamics
Direct
  0.9548813614160494  0.9880398768949945  0.0761201918359973   T   T   T
  0.2050938212956126  0.2427661776619559  0.1801345536805030   T   T   T
  0.4590575034672639  0.3465326053477114  0.9287588619523177   T   T   T
  0.8415810237081232  0.7306563395596299  0.3208175514967806   T   T   T
  0.5868739889096162  0.8549709751684915  0.5609485933586811   T   T   T
  0.7096619673599065  0.0951582479689321  0.8195456387373028   T   T   T
  0.0942834269801835  0.4878043645815566  0.4355937981209621   T   T   T
  0.3423149221818349  0.6025390009547280  0.6866468572263997   T   T   T
  0.1480285710291511  0.6358103566732680  0.0422633698566628   T   T   T
  0.8865068333511843  0.1327705118811053  0.4674618335274090   T   T   T
  0.5542901156269480  0.0214912753545846  0.1932640020138123   T   T   T
  0.0544898045908866  0.3098410117739121  0.7910245882537907   T   T   T
  0.4833778909117328  0.5569369408031832  0.2856250205983315   T   T   T
  0.6946549277177851  0.6900774424272882  0.9166401270163931   T   T   T
  0.4265047293055204  0.2301966392253192  0.5357219267830047   T   T   T
  0.2146331024100547  0.8840199165046201  0.3994412614581648   T   T   T
  0.8117238369909998  0.3652891769573685  0.1391064867230369   T   T   T
  0.2998961741911472  0.9612514850753513  0.8583854794594288   T   T   T
 
  0.00000000E+00  0.00000000E+00  0.00000000E+00
  0.00000000E+00  0.00000000E+00  0.00000000E+00
  0.00000000E+00  0.00000000E+00  0.00000000E+00
  0.00000000E+00  0.00000000E+00  0.00000000E+00
  0.00000000E+00  0.00000000E+00  0.00000000E+00
  0.00000000E+00  0.00000000E+00  0.00000000E+00
  0.00000000E+00  0.00000000E+00  0.00000000E+00
  0.00000000E+00  0.00000000E+00  0.00000000E+00
  0.00000000E+00  0.00000000E+00  0.00000000E+00
  0.00000000E+00  0.00000000E+00  0.00000000E+00
  0.00000000E+00  0.00000000E+00  0.00000000E+00
  0.00000000E+00  0.00000000E+00  0.00000000E+00
  0.00000000E+00  0.00000000E+00  0.00000000E+00
  0.00000000E+00  0.00000000E+00  0.00000000E+00
  0.00000000E+00  0.00000000E+00  0.00000000E+00
  0.00000000E+00  0.00000000E+00  0.00000000E+00
  0.00000000E+00  0.00000000E+00  0.00000000E+00
  0.00000000E+00  0.00000000E+00  0.00000000E+00
