Si Li
1.0
  6.459620000000   0.000000000000   0.000000000000
  0.000000000000   6.459620000000   0.000000000000
  0.000000000000   0.000000000000   6.459620000000
Si Li
  8  10
Selective dynamics
Direct
  0.963313811865   0.018943235995   0.041033217651  T T T
  0.200965139374   0.275794295299   0.168007415994  T T T
  0.449245957301   0.390253264511   0.913996191417  T T T
  0.830508942368   0.772023053601   0.287682225301  T T T
  0.591290477598   0.901099607996   0.542103758874  T T T
  0.706284265545   0.140571119973   0.799094905211  T T T
  0.087340020636   0.530514237509   0.410732464294  T T T
  0.345189322545   0.645776676755   0.659081237023  T T T
  0.118672174447   0.720491562553   0.167063022593  T T T
  0.955119212709   0.113186355668   0.607662304145  T T T
  0.431888525238   0.867980844446   0.221836766621  T T T
  0.077304839418   0.351136426245   0.860734729644  T T T
  0.514636881535   0.505939719132   0.218524795762  T T T
  0.735060121617   0.632821850852   0.811446941445  T T T
  0.478272666999   0.192173922646   0.400053347457  T T T
  0.082334826693   0.837955540744   0.485126351581  T T T
  0.849981175379   0.202812554067   0.300948283908  T T T
  0.350445640177   0.036678076822   0.742372183178  T T T
