# Input file for BMDEE polymerization

variable FileName string BMDEE

log ${FileName}.log

# ------------------------ INITIALIZATION ----------------------------
units real
dimension 3
boundary p p p
atom_style charge 
atom_modify id yes
atom_modify map array
read_data BMDEE_100_Reax_30A.inp

# ------------------------ FORCE FIELDS ------------------------------
pair_style reax/c NULL 
pair_coeff * * Reax_2015.ff Si O C H 

neighbor 2.0 bin
neigh_modifyevery 10 delay 10 check yes

fix chgequil all qeq/reax 1 0.0 10.0 1e-6 reax/c

timestep 0.25
reset_timestep 0

velocity all create 2000.0 87287

fix 2 all nvt temp 2000.0 2000.0 100.0 

 fix fixbond_1 all restrain bond 1 4 50.00000 50.00000 1.70000
 fix fixbond_2 all restrain bond 2 3 50.00000 50.00000 1.70000
 fix fixbond_3 all restrain bond 3 6 50.00000 50.00000 1.70000
 fix fixbond_4 all restrain bond 4 10 50.00000 50.00000 1.70000
 fix fixbond_5 all restrain bond 1 2 50.00000 50.00000 1.53000
 fix fixbond_6 all restrain bond 1 11 50.00000 50.00000 1.09000
 fix fixbond_7 all restrain bond 1 12 50.00000 50.00000 1.09000
 fix fixbond_8 all restrain bond 2 13 50.00000 50.00000 1.09000
 fix fixbond_9 all restrain bond 2 14 50.00000 50.00000 1.09000
 fix fixbond_10 all restrain bond 6 16 50.00000 50.00000 1.09000
 fix fixbond_11 all restrain bond 6 17 50.00000 50.00000 1.09000
 fix fixbond_12 all restrain bond 6 18 50.00000 50.00000 1.09000
 fix fixbond_13 all restrain bond 10 22 50.00000 50.00000 1.09000
 fix fixbond_14 all restrain bond 10 23 50.00000 50.00000 1.09000
 fix fixbond_15 all restrain bond 10 24 50.00000 50.00000 1.09000
 fix fixbond_16 all restrain bond 25 28 50.00000 50.00000 1.70000
 fix fixbond_17 all restrain bond 26 27 50.00000 50.00000 1.70000
 fix fixbond_18 all restrain bond 27 30 50.00000 50.00000 1.70000
 fix fixbond_19 all restrain bond 28 34 50.00000 50.00000 1.70000
 fix fixbond_20 all restrain bond 25 26 50.00000 50.00000 1.53000
 fix fixbond_21 all restrain bond 25 35 50.00000 50.00000 1.09000
 fix fixbond_22 all restrain bond 25 36 50.00000 50.00000 1.09000
 fix fixbond_23 all restrain bond 26 37 50.00000 50.00000 1.09000
 fix fixbond_24 all restrain bond 26 38 50.00000 50.00000 1.09000
 fix fixbond_25 all restrain bond 30 40 50.00000 50.00000 1.09000
 fix fixbond_26 all restrain bond 30 41 50.00000 50.00000 1.09000
 fix fixbond_27 all restrain bond 30 42 50.00000 50.00000 1.09000
 fix fixbond_28 all restrain bond 34 46 50.00000 50.00000 1.09000
 fix fixbond_29 all restrain bond 34 47 50.00000 50.00000 1.09000
 fix fixbond_30 all restrain bond 34 48 50.00000 50.00000 1.09000
 fix fixbond_31 all restrain bond 49 52 50.00000 50.00000 1.70000
 fix fixbond_32 all restrain bond 50 51 50.00000 50.00000 1.70000
 fix fixbond_33 all restrain bond 51 54 50.00000 50.00000 1.70000
 fix fixbond_34 all restrain bond 52 58 50.00000 50.00000 1.70000
 fix fixbond_35 all restrain bond 49 50 50.00000 50.00000 1.53000
 fix fixbond_36 all restrain bond 49 59 50.00000 50.00000 1.09000
 fix fixbond_37 all restrain bond 49 60 50.00000 50.00000 1.09000
 fix fixbond_38 all restrain bond 50 61 50.00000 50.00000 1.09000
 fix fixbond_39 all restrain bond 50 62 50.00000 50.00000 1.09000
 fix fixbond_40 all restrain bond 54 64 50.00000 50.00000 1.09000
 fix fixbond_41 all restrain bond 54 65 50.00000 50.00000 1.09000
 fix fixbond_42 all restrain bond 54 66 50.00000 50.00000 1.09000
 fix fixbond_43 all restrain bond 58 70 50.00000 50.00000 1.09000
 fix fixbond_44 all restrain bond 58 71 50.00000 50.00000 1.09000
 fix fixbond_45 all restrain bond 58 72 50.00000 50.00000 1.09000
 fix fixbond_46 all restrain bond 73 76 50.00000 50.00000 1.70000
 fix fixbond_47 all restrain bond 74 75 50.00000 50.00000 1.70000
 fix fixbond_48 all restrain bond 75 78 50.00000 50.00000 1.70000
 fix fixbond_49 all restrain bond 76 82 50.00000 50.00000 1.70000
 fix fixbond_50 all restrain bond 73 74 50.00000 50.00000 1.53000
 fix fixbond_51 all restrain bond 73 83 50.00000 50.00000 1.09000
 fix fixbond_52 all restrain bond 73 84 50.00000 50.00000 1.09000
 fix fixbond_53 all restrain bond 74 85 50.00000 50.00000 1.09000
 fix fixbond_54 all restrain bond 74 86 50.00000 50.00000 1.09000
 fix fixbond_55 all restrain bond 78 88 50.00000 50.00000 1.09000
 fix fixbond_56 all restrain bond 78 89 50.00000 50.00000 1.09000
 fix fixbond_57 all restrain bond 78 90 50.00000 50.00000 1.09000
 fix fixbond_58 all restrain bond 82 94 50.00000 50.00000 1.09000
 fix fixbond_59 all restrain bond 82 95 50.00000 50.00000 1.09000
 fix fixbond_60 all restrain bond 82 96 50.00000 50.00000 1.09000
 fix fixbond_61 all restrain bond 97 100 50.00000 50.00000 1.70000
 fix fixbond_62 all restrain bond 98 99 50.00000 50.00000 1.70000
 fix fixbond_63 all restrain bond 99 102 50.00000 50.00000 1.70000
 fix fixbond_64 all restrain bond 100 106 50.00000 50.00000 1.70000
 fix fixbond_65 all restrain bond 97 98 50.00000 50.00000 1.53000
 fix fixbond_66 all restrain bond 97 107 50.00000 50.00000 1.09000
 fix fixbond_67 all restrain bond 97 108 50.00000 50.00000 1.09000
 fix fixbond_68 all restrain bond 98 109 50.00000 50.00000 1.09000
 fix fixbond_69 all restrain bond 98 110 50.00000 50.00000 1.09000
 fix fixbond_70 all restrain bond 102 112 50.00000 50.00000 1.09000
 fix fixbond_71 all restrain bond 102 113 50.00000 50.00000 1.09000
 fix fixbond_72 all restrain bond 102 114 50.00000 50.00000 1.09000
 fix fixbond_73 all restrain bond 106 118 50.00000 50.00000 1.09000
 fix fixbond_74 all restrain bond 106 119 50.00000 50.00000 1.09000
 fix fixbond_75 all restrain bond 106 120 50.00000 50.00000 1.09000
 fix fixbond_76 all restrain bond 121 124 50.00000 50.00000 1.70000
 fix fixbond_77 all restrain bond 122 123 50.00000 50.00000 1.70000
 fix fixbond_78 all restrain bond 123 126 50.00000 50.00000 1.70000
 fix fixbond_79 all restrain bond 124 130 50.00000 50.00000 1.70000
 fix fixbond_80 all restrain bond 121 122 50.00000 50.00000 1.53000
 fix fixbond_81 all restrain bond 121 131 50.00000 50.00000 1.09000
 fix fixbond_82 all restrain bond 121 132 50.00000 50.00000 1.09000
 fix fixbond_83 all restrain bond 122 133 50.00000 50.00000 1.09000
 fix fixbond_84 all restrain bond 122 134 50.00000 50.00000 1.09000
 fix fixbond_85 all restrain bond 126 136 50.00000 50.00000 1.09000
 fix fixbond_86 all restrain bond 126 137 50.00000 50.00000 1.09000
 fix fixbond_87 all restrain bond 126 138 50.00000 50.00000 1.09000
 fix fixbond_88 all restrain bond 130 142 50.00000 50.00000 1.09000
 fix fixbond_89 all restrain bond 130 143 50.00000 50.00000 1.09000
 fix fixbond_90 all restrain bond 130 144 50.00000 50.00000 1.09000
 fix fixbond_91 all restrain bond 145 148 50.00000 50.00000 1.70000
 fix fixbond_92 all restrain bond 146 147 50.00000 50.00000 1.70000
 fix fixbond_93 all restrain bond 147 150 50.00000 50.00000 1.70000
 fix fixbond_94 all restrain bond 148 154 50.00000 50.00000 1.70000
 fix fixbond_95 all restrain bond 145 146 50.00000 50.00000 1.53000
 fix fixbond_96 all restrain bond 145 155 50.00000 50.00000 1.09000
 fix fixbond_97 all restrain bond 145 156 50.00000 50.00000 1.09000
 fix fixbond_98 all restrain bond 146 157 50.00000 50.00000 1.09000
 fix fixbond_99 all restrain bond 146 158 50.00000 50.00000 1.09000
 fix fixbond_100 all restrain bond 150 160 50.00000 50.00000 1.09000
 fix fixbond_101 all restrain bond 150 161 50.00000 50.00000 1.09000
 fix fixbond_102 all restrain bond 150 162 50.00000 50.00000 1.09000
 fix fixbond_103 all restrain bond 154 166 50.00000 50.00000 1.09000
 fix fixbond_104 all restrain bond 154 167 50.00000 50.00000 1.09000
 fix fixbond_105 all restrain bond 154 168 50.00000 50.00000 1.09000
 fix fixbond_106 all restrain bond 169 172 50.00000 50.00000 1.70000
 fix fixbond_107 all restrain bond 170 171 50.00000 50.00000 1.70000
 fix fixbond_108 all restrain bond 171 174 50.00000 50.00000 1.70000
 fix fixbond_109 all restrain bond 172 178 50.00000 50.00000 1.70000
 fix fixbond_110 all restrain bond 169 170 50.00000 50.00000 1.53000
 fix fixbond_111 all restrain bond 169 179 50.00000 50.00000 1.09000
 fix fixbond_112 all restrain bond 169 180 50.00000 50.00000 1.09000
 fix fixbond_113 all restrain bond 170 181 50.00000 50.00000 1.09000
 fix fixbond_114 all restrain bond 170 182 50.00000 50.00000 1.09000
 fix fixbond_115 all restrain bond 174 184 50.00000 50.00000 1.09000
 fix fixbond_116 all restrain bond 174 185 50.00000 50.00000 1.09000
 fix fixbond_117 all restrain bond 174 186 50.00000 50.00000 1.09000
 fix fixbond_118 all restrain bond 178 190 50.00000 50.00000 1.09000
 fix fixbond_119 all restrain bond 178 191 50.00000 50.00000 1.09000
 fix fixbond_120 all restrain bond 178 192 50.00000 50.00000 1.09000
 fix fixbond_121 all restrain bond 193 196 50.00000 50.00000 1.70000
 fix fixbond_122 all restrain bond 194 195 50.00000 50.00000 1.70000
 fix fixbond_123 all restrain bond 195 198 50.00000 50.00000 1.70000
 fix fixbond_124 all restrain bond 196 202 50.00000 50.00000 1.70000
 fix fixbond_125 all restrain bond 193 194 50.00000 50.00000 1.53000
 fix fixbond_126 all restrain bond 193 203 50.00000 50.00000 1.09000
 fix fixbond_127 all restrain bond 193 204 50.00000 50.00000 1.09000
 fix fixbond_128 all restrain bond 194 205 50.00000 50.00000 1.09000
 fix fixbond_129 all restrain bond 194 206 50.00000 50.00000 1.09000
 fix fixbond_130 all restrain bond 198 208 50.00000 50.00000 1.09000
 fix fixbond_131 all restrain bond 198 209 50.00000 50.00000 1.09000
 fix fixbond_132 all restrain bond 198 210 50.00000 50.00000 1.09000
 fix fixbond_133 all restrain bond 202 214 50.00000 50.00000 1.09000
 fix fixbond_134 all restrain bond 202 215 50.00000 50.00000 1.09000
 fix fixbond_135 all restrain bond 202 216 50.00000 50.00000 1.09000
 fix fixbond_136 all restrain bond 217 220 50.00000 50.00000 1.70000
 fix fixbond_137 all restrain bond 218 219 50.00000 50.00000 1.70000
 fix fixbond_138 all restrain bond 219 222 50.00000 50.00000 1.70000
 fix fixbond_139 all restrain bond 220 226 50.00000 50.00000 1.70000
 fix fixbond_140 all restrain bond 217 218 50.00000 50.00000 1.53000
 fix fixbond_141 all restrain bond 217 227 50.00000 50.00000 1.09000
 fix fixbond_142 all restrain bond 217 228 50.00000 50.00000 1.09000
 fix fixbond_143 all restrain bond 218 229 50.00000 50.00000 1.09000
 fix fixbond_144 all restrain bond 218 230 50.00000 50.00000 1.09000
 fix fixbond_145 all restrain bond 222 232 50.00000 50.00000 1.09000
 fix fixbond_146 all restrain bond 222 233 50.00000 50.00000 1.09000
 fix fixbond_147 all restrain bond 222 234 50.00000 50.00000 1.09000
 fix fixbond_148 all restrain bond 226 238 50.00000 50.00000 1.09000
 fix fixbond_149 all restrain bond 226 239 50.00000 50.00000 1.09000
 fix fixbond_150 all restrain bond 226 240 50.00000 50.00000 1.09000
 fix fixbond_151 all restrain bond 241 244 50.00000 50.00000 1.70000
 fix fixbond_152 all restrain bond 242 243 50.00000 50.00000 1.70000
 fix fixbond_153 all restrain bond 243 246 50.00000 50.00000 1.70000
 fix fixbond_154 all restrain bond 244 250 50.00000 50.00000 1.70000
 fix fixbond_155 all restrain bond 241 242 50.00000 50.00000 1.53000
 fix fixbond_156 all restrain bond 241 251 50.00000 50.00000 1.09000
 fix fixbond_157 all restrain bond 241 252 50.00000 50.00000 1.09000
 fix fixbond_158 all restrain bond 242 253 50.00000 50.00000 1.09000
 fix fixbond_159 all restrain bond 242 254 50.00000 50.00000 1.09000
 fix fixbond_160 all restrain bond 246 256 50.00000 50.00000 1.09000
 fix fixbond_161 all restrain bond 246 257 50.00000 50.00000 1.09000
 fix fixbond_162 all restrain bond 246 258 50.00000 50.00000 1.09000
 fix fixbond_163 all restrain bond 250 262 50.00000 50.00000 1.09000
 fix fixbond_164 all restrain bond 250 263 50.00000 50.00000 1.09000
 fix fixbond_165 all restrain bond 250 264 50.00000 50.00000 1.09000
 fix fixbond_166 all restrain bond 265 268 50.00000 50.00000 1.70000
 fix fixbond_167 all restrain bond 266 267 50.00000 50.00000 1.70000
 fix fixbond_168 all restrain bond 267 270 50.00000 50.00000 1.70000
 fix fixbond_169 all restrain bond 268 274 50.00000 50.00000 1.70000
 fix fixbond_170 all restrain bond 265 266 50.00000 50.00000 1.53000
 fix fixbond_171 all restrain bond 265 275 50.00000 50.00000 1.09000
 fix fixbond_172 all restrain bond 265 276 50.00000 50.00000 1.09000
 fix fixbond_173 all restrain bond 266 277 50.00000 50.00000 1.09000
 fix fixbond_174 all restrain bond 266 278 50.00000 50.00000 1.09000
 fix fixbond_175 all restrain bond 270 280 50.00000 50.00000 1.09000
 fix fixbond_176 all restrain bond 270 281 50.00000 50.00000 1.09000
 fix fixbond_177 all restrain bond 270 282 50.00000 50.00000 1.09000
 fix fixbond_178 all restrain bond 274 286 50.00000 50.00000 1.09000
 fix fixbond_179 all restrain bond 274 287 50.00000 50.00000 1.09000
 fix fixbond_180 all restrain bond 274 288 50.00000 50.00000 1.09000
 fix fixbond_181 all restrain bond 289 292 50.00000 50.00000 1.70000
 fix fixbond_182 all restrain bond 290 291 50.00000 50.00000 1.70000
 fix fixbond_183 all restrain bond 291 294 50.00000 50.00000 1.70000
 fix fixbond_184 all restrain bond 292 298 50.00000 50.00000 1.70000
 fix fixbond_185 all restrain bond 289 290 50.00000 50.00000 1.53000
 fix fixbond_186 all restrain bond 289 299 50.00000 50.00000 1.09000
 fix fixbond_187 all restrain bond 289 300 50.00000 50.00000 1.09000
 fix fixbond_188 all restrain bond 290 301 50.00000 50.00000 1.09000
 fix fixbond_189 all restrain bond 290 302 50.00000 50.00000 1.09000
 fix fixbond_190 all restrain bond 294 304 50.00000 50.00000 1.09000
 fix fixbond_191 all restrain bond 294 305 50.00000 50.00000 1.09000
 fix fixbond_192 all restrain bond 294 306 50.00000 50.00000 1.09000
 fix fixbond_193 all restrain bond 298 310 50.00000 50.00000 1.09000
 fix fixbond_194 all restrain bond 298 311 50.00000 50.00000 1.09000
 fix fixbond_195 all restrain bond 298 312 50.00000 50.00000 1.09000
 fix fixbond_196 all restrain bond 313 316 50.00000 50.00000 1.70000
 fix fixbond_197 all restrain bond 314 315 50.00000 50.00000 1.70000
 fix fixbond_198 all restrain bond 315 318 50.00000 50.00000 1.70000
 fix fixbond_199 all restrain bond 316 322 50.00000 50.00000 1.70000
 fix fixbond_200 all restrain bond 313 314 50.00000 50.00000 1.53000
 fix fixbond_201 all restrain bond 313 323 50.00000 50.00000 1.09000
 fix fixbond_202 all restrain bond 313 324 50.00000 50.00000 1.09000
 fix fixbond_203 all restrain bond 314 325 50.00000 50.00000 1.09000
 fix fixbond_204 all restrain bond 314 326 50.00000 50.00000 1.09000
 fix fixbond_205 all restrain bond 318 328 50.00000 50.00000 1.09000
 fix fixbond_206 all restrain bond 318 329 50.00000 50.00000 1.09000
 fix fixbond_207 all restrain bond 318 330 50.00000 50.00000 1.09000
 fix fixbond_208 all restrain bond 322 334 50.00000 50.00000 1.09000
 fix fixbond_209 all restrain bond 322 335 50.00000 50.00000 1.09000
 fix fixbond_210 all restrain bond 322 336 50.00000 50.00000 1.09000
 fix fixbond_211 all restrain bond 337 340 50.00000 50.00000 1.70000
 fix fixbond_212 all restrain bond 338 339 50.00000 50.00000 1.70000
 fix fixbond_213 all restrain bond 339 342 50.00000 50.00000 1.70000
 fix fixbond_214 all restrain bond 340 346 50.00000 50.00000 1.70000
 fix fixbond_215 all restrain bond 337 338 50.00000 50.00000 1.53000
 fix fixbond_216 all restrain bond 337 347 50.00000 50.00000 1.09000
 fix fixbond_217 all restrain bond 337 348 50.00000 50.00000 1.09000
 fix fixbond_218 all restrain bond 338 349 50.00000 50.00000 1.09000
 fix fixbond_219 all restrain bond 338 350 50.00000 50.00000 1.09000
 fix fixbond_220 all restrain bond 342 352 50.00000 50.00000 1.09000
 fix fixbond_221 all restrain bond 342 353 50.00000 50.00000 1.09000
 fix fixbond_222 all restrain bond 342 354 50.00000 50.00000 1.09000
 fix fixbond_223 all restrain bond 346 358 50.00000 50.00000 1.09000
 fix fixbond_224 all restrain bond 346 359 50.00000 50.00000 1.09000
 fix fixbond_225 all restrain bond 346 360 50.00000 50.00000 1.09000
 fix fixbond_226 all restrain bond 361 364 50.00000 50.00000 1.70000
 fix fixbond_227 all restrain bond 362 363 50.00000 50.00000 1.70000
 fix fixbond_228 all restrain bond 363 366 50.00000 50.00000 1.70000
 fix fixbond_229 all restrain bond 364 370 50.00000 50.00000 1.70000
 fix fixbond_230 all restrain bond 361 362 50.00000 50.00000 1.53000
 fix fixbond_231 all restrain bond 361 371 50.00000 50.00000 1.09000
 fix fixbond_232 all restrain bond 361 372 50.00000 50.00000 1.09000
 fix fixbond_233 all restrain bond 362 373 50.00000 50.00000 1.09000
 fix fixbond_234 all restrain bond 362 374 50.00000 50.00000 1.09000
 fix fixbond_235 all restrain bond 366 376 50.00000 50.00000 1.09000
 fix fixbond_236 all restrain bond 366 377 50.00000 50.00000 1.09000
 fix fixbond_237 all restrain bond 366 378 50.00000 50.00000 1.09000
 fix fixbond_238 all restrain bond 370 382 50.00000 50.00000 1.09000
 fix fixbond_239 all restrain bond 370 383 50.00000 50.00000 1.09000
 fix fixbond_240 all restrain bond 370 384 50.00000 50.00000 1.09000
 fix fixbond_241 all restrain bond 385 388 50.00000 50.00000 1.70000
 fix fixbond_242 all restrain bond 386 387 50.00000 50.00000 1.70000
 fix fixbond_243 all restrain bond 387 390 50.00000 50.00000 1.70000
 fix fixbond_244 all restrain bond 388 394 50.00000 50.00000 1.70000
 fix fixbond_245 all restrain bond 385 386 50.00000 50.00000 1.53000
 fix fixbond_246 all restrain bond 385 395 50.00000 50.00000 1.09000
 fix fixbond_247 all restrain bond 385 396 50.00000 50.00000 1.09000
 fix fixbond_248 all restrain bond 386 397 50.00000 50.00000 1.09000
 fix fixbond_249 all restrain bond 386 398 50.00000 50.00000 1.09000
 fix fixbond_250 all restrain bond 390 400 50.00000 50.00000 1.09000
 fix fixbond_251 all restrain bond 390 401 50.00000 50.00000 1.09000
 fix fixbond_252 all restrain bond 390 402 50.00000 50.00000 1.09000
 fix fixbond_253 all restrain bond 394 406 50.00000 50.00000 1.09000
 fix fixbond_254 all restrain bond 394 407 50.00000 50.00000 1.09000
 fix fixbond_255 all restrain bond 394 408 50.00000 50.00000 1.09000
 fix fixbond_256 all restrain bond 409 412 50.00000 50.00000 1.70000
 fix fixbond_257 all restrain bond 410 411 50.00000 50.00000 1.70000
 fix fixbond_258 all restrain bond 411 414 50.00000 50.00000 1.70000
 fix fixbond_259 all restrain bond 412 418 50.00000 50.00000 1.70000
 fix fixbond_260 all restrain bond 409 410 50.00000 50.00000 1.53000
 fix fixbond_261 all restrain bond 409 419 50.00000 50.00000 1.09000
 fix fixbond_262 all restrain bond 409 420 50.00000 50.00000 1.09000
 fix fixbond_263 all restrain bond 410 421 50.00000 50.00000 1.09000
 fix fixbond_264 all restrain bond 410 422 50.00000 50.00000 1.09000
 fix fixbond_265 all restrain bond 414 424 50.00000 50.00000 1.09000
 fix fixbond_266 all restrain bond 414 425 50.00000 50.00000 1.09000
 fix fixbond_267 all restrain bond 414 426 50.00000 50.00000 1.09000
 fix fixbond_268 all restrain bond 418 430 50.00000 50.00000 1.09000
 fix fixbond_269 all restrain bond 418 431 50.00000 50.00000 1.09000
 fix fixbond_270 all restrain bond 418 432 50.00000 50.00000 1.09000
 fix fixbond_271 all restrain bond 433 436 50.00000 50.00000 1.70000
 fix fixbond_272 all restrain bond 434 435 50.00000 50.00000 1.70000
 fix fixbond_273 all restrain bond 435 438 50.00000 50.00000 1.70000
 fix fixbond_274 all restrain bond 436 442 50.00000 50.00000 1.70000
 fix fixbond_275 all restrain bond 433 434 50.00000 50.00000 1.53000
 fix fixbond_276 all restrain bond 433 443 50.00000 50.00000 1.09000
 fix fixbond_277 all restrain bond 433 444 50.00000 50.00000 1.09000
 fix fixbond_278 all restrain bond 434 445 50.00000 50.00000 1.09000
 fix fixbond_279 all restrain bond 434 446 50.00000 50.00000 1.09000
 fix fixbond_280 all restrain bond 438 448 50.00000 50.00000 1.09000
 fix fixbond_281 all restrain bond 438 449 50.00000 50.00000 1.09000
 fix fixbond_282 all restrain bond 438 450 50.00000 50.00000 1.09000
 fix fixbond_283 all restrain bond 442 454 50.00000 50.00000 1.09000
 fix fixbond_284 all restrain bond 442 455 50.00000 50.00000 1.09000
 fix fixbond_285 all restrain bond 442 456 50.00000 50.00000 1.09000
 fix fixbond_286 all restrain bond 457 460 50.00000 50.00000 1.70000
 fix fixbond_287 all restrain bond 458 459 50.00000 50.00000 1.70000
 fix fixbond_288 all restrain bond 459 462 50.00000 50.00000 1.70000
 fix fixbond_289 all restrain bond 460 466 50.00000 50.00000 1.70000
 fix fixbond_290 all restrain bond 457 458 50.00000 50.00000 1.53000
 fix fixbond_291 all restrain bond 457 467 50.00000 50.00000 1.09000
 fix fixbond_292 all restrain bond 457 468 50.00000 50.00000 1.09000
 fix fixbond_293 all restrain bond 458 469 50.00000 50.00000 1.09000
 fix fixbond_294 all restrain bond 458 470 50.00000 50.00000 1.09000
 fix fixbond_295 all restrain bond 462 472 50.00000 50.00000 1.09000
 fix fixbond_296 all restrain bond 462 473 50.00000 50.00000 1.09000
 fix fixbond_297 all restrain bond 462 474 50.00000 50.00000 1.09000
 fix fixbond_298 all restrain bond 466 478 50.00000 50.00000 1.09000
 fix fixbond_299 all restrain bond 466 479 50.00000 50.00000 1.09000
 fix fixbond_300 all restrain bond 466 480 50.00000 50.00000 1.09000
 fix fixbond_301 all restrain bond 481 484 50.00000 50.00000 1.70000
 fix fixbond_302 all restrain bond 482 483 50.00000 50.00000 1.70000
 fix fixbond_303 all restrain bond 483 486 50.00000 50.00000 1.70000
 fix fixbond_304 all restrain bond 484 490 50.00000 50.00000 1.70000
 fix fixbond_305 all restrain bond 481 482 50.00000 50.00000 1.53000
 fix fixbond_306 all restrain bond 481 491 50.00000 50.00000 1.09000
 fix fixbond_307 all restrain bond 481 492 50.00000 50.00000 1.09000
 fix fixbond_308 all restrain bond 482 493 50.00000 50.00000 1.09000
 fix fixbond_309 all restrain bond 482 494 50.00000 50.00000 1.09000
 fix fixbond_310 all restrain bond 486 496 50.00000 50.00000 1.09000
 fix fixbond_311 all restrain bond 486 497 50.00000 50.00000 1.09000
 fix fixbond_312 all restrain bond 486 498 50.00000 50.00000 1.09000
 fix fixbond_313 all restrain bond 490 502 50.00000 50.00000 1.09000
 fix fixbond_314 all restrain bond 490 503 50.00000 50.00000 1.09000
 fix fixbond_315 all restrain bond 490 504 50.00000 50.00000 1.09000
 fix fixbond_316 all restrain bond 505 508 50.00000 50.00000 1.70000
 fix fixbond_317 all restrain bond 506 507 50.00000 50.00000 1.70000
 fix fixbond_318 all restrain bond 507 510 50.00000 50.00000 1.70000
 fix fixbond_319 all restrain bond 508 514 50.00000 50.00000 1.70000
 fix fixbond_320 all restrain bond 505 506 50.00000 50.00000 1.53000
 fix fixbond_321 all restrain bond 505 515 50.00000 50.00000 1.09000
 fix fixbond_322 all restrain bond 505 516 50.00000 50.00000 1.09000
 fix fixbond_323 all restrain bond 506 517 50.00000 50.00000 1.09000
 fix fixbond_324 all restrain bond 506 518 50.00000 50.00000 1.09000
 fix fixbond_325 all restrain bond 510 520 50.00000 50.00000 1.09000
 fix fixbond_326 all restrain bond 510 521 50.00000 50.00000 1.09000
 fix fixbond_327 all restrain bond 510 522 50.00000 50.00000 1.09000
 fix fixbond_328 all restrain bond 514 526 50.00000 50.00000 1.09000
 fix fixbond_329 all restrain bond 514 527 50.00000 50.00000 1.09000
 fix fixbond_330 all restrain bond 514 528 50.00000 50.00000 1.09000
 fix fixbond_331 all restrain bond 529 532 50.00000 50.00000 1.70000
 fix fixbond_332 all restrain bond 530 531 50.00000 50.00000 1.70000
 fix fixbond_333 all restrain bond 531 534 50.00000 50.00000 1.70000
 fix fixbond_334 all restrain bond 532 538 50.00000 50.00000 1.70000
 fix fixbond_335 all restrain bond 529 530 50.00000 50.00000 1.53000
 fix fixbond_336 all restrain bond 529 539 50.00000 50.00000 1.09000
 fix fixbond_337 all restrain bond 529 540 50.00000 50.00000 1.09000
 fix fixbond_338 all restrain bond 530 541 50.00000 50.00000 1.09000
 fix fixbond_339 all restrain bond 530 542 50.00000 50.00000 1.09000
 fix fixbond_340 all restrain bond 534 544 50.00000 50.00000 1.09000
 fix fixbond_341 all restrain bond 534 545 50.00000 50.00000 1.09000
 fix fixbond_342 all restrain bond 534 546 50.00000 50.00000 1.09000
 fix fixbond_343 all restrain bond 538 550 50.00000 50.00000 1.09000
 fix fixbond_344 all restrain bond 538 551 50.00000 50.00000 1.09000
 fix fixbond_345 all restrain bond 538 552 50.00000 50.00000 1.09000
 fix fixbond_346 all restrain bond 553 556 50.00000 50.00000 1.70000
 fix fixbond_347 all restrain bond 554 555 50.00000 50.00000 1.70000
 fix fixbond_348 all restrain bond 555 558 50.00000 50.00000 1.70000
 fix fixbond_349 all restrain bond 556 562 50.00000 50.00000 1.70000
 fix fixbond_350 all restrain bond 553 554 50.00000 50.00000 1.53000
 fix fixbond_351 all restrain bond 553 563 50.00000 50.00000 1.09000
 fix fixbond_352 all restrain bond 553 564 50.00000 50.00000 1.09000
 fix fixbond_353 all restrain bond 554 565 50.00000 50.00000 1.09000
 fix fixbond_354 all restrain bond 554 566 50.00000 50.00000 1.09000
 fix fixbond_355 all restrain bond 558 568 50.00000 50.00000 1.09000
 fix fixbond_356 all restrain bond 558 569 50.00000 50.00000 1.09000
 fix fixbond_357 all restrain bond 558 570 50.00000 50.00000 1.09000
 fix fixbond_358 all restrain bond 562 574 50.00000 50.00000 1.09000
 fix fixbond_359 all restrain bond 562 575 50.00000 50.00000 1.09000
 fix fixbond_360 all restrain bond 562 576 50.00000 50.00000 1.09000
 fix fixbond_361 all restrain bond 577 580 50.00000 50.00000 1.70000
 fix fixbond_362 all restrain bond 578 579 50.00000 50.00000 1.70000
 fix fixbond_363 all restrain bond 579 582 50.00000 50.00000 1.70000
 fix fixbond_364 all restrain bond 580 586 50.00000 50.00000 1.70000
 fix fixbond_365 all restrain bond 577 578 50.00000 50.00000 1.53000
 fix fixbond_366 all restrain bond 577 587 50.00000 50.00000 1.09000
 fix fixbond_367 all restrain bond 577 588 50.00000 50.00000 1.09000
 fix fixbond_368 all restrain bond 578 589 50.00000 50.00000 1.09000
 fix fixbond_369 all restrain bond 578 590 50.00000 50.00000 1.09000
 fix fixbond_370 all restrain bond 582 592 50.00000 50.00000 1.09000
 fix fixbond_371 all restrain bond 582 593 50.00000 50.00000 1.09000
 fix fixbond_372 all restrain bond 582 594 50.00000 50.00000 1.09000
 fix fixbond_373 all restrain bond 586 598 50.00000 50.00000 1.09000
 fix fixbond_374 all restrain bond 586 599 50.00000 50.00000 1.09000
 fix fixbond_375 all restrain bond 586 600 50.00000 50.00000 1.09000
 fix fixbond_376 all restrain bond 601 604 50.00000 50.00000 1.70000
 fix fixbond_377 all restrain bond 602 603 50.00000 50.00000 1.70000
 fix fixbond_378 all restrain bond 603 606 50.00000 50.00000 1.70000
 fix fixbond_379 all restrain bond 604 610 50.00000 50.00000 1.70000
 fix fixbond_380 all restrain bond 601 602 50.00000 50.00000 1.53000
 fix fixbond_381 all restrain bond 601 611 50.00000 50.00000 1.09000
 fix fixbond_382 all restrain bond 601 612 50.00000 50.00000 1.09000
 fix fixbond_383 all restrain bond 602 613 50.00000 50.00000 1.09000
 fix fixbond_384 all restrain bond 602 614 50.00000 50.00000 1.09000
 fix fixbond_385 all restrain bond 606 616 50.00000 50.00000 1.09000
 fix fixbond_386 all restrain bond 606 617 50.00000 50.00000 1.09000
 fix fixbond_387 all restrain bond 606 618 50.00000 50.00000 1.09000
 fix fixbond_388 all restrain bond 610 622 50.00000 50.00000 1.09000
 fix fixbond_389 all restrain bond 610 623 50.00000 50.00000 1.09000
 fix fixbond_390 all restrain bond 610 624 50.00000 50.00000 1.09000
 fix fixbond_391 all restrain bond 625 628 50.00000 50.00000 1.70000
 fix fixbond_392 all restrain bond 626 627 50.00000 50.00000 1.70000
 fix fixbond_393 all restrain bond 627 630 50.00000 50.00000 1.70000
 fix fixbond_394 all restrain bond 628 634 50.00000 50.00000 1.70000
 fix fixbond_395 all restrain bond 625 626 50.00000 50.00000 1.53000
 fix fixbond_396 all restrain bond 625 635 50.00000 50.00000 1.09000
 fix fixbond_397 all restrain bond 625 636 50.00000 50.00000 1.09000
 fix fixbond_398 all restrain bond 626 637 50.00000 50.00000 1.09000
 fix fixbond_399 all restrain bond 626 638 50.00000 50.00000 1.09000
 fix fixbond_400 all restrain bond 630 640 50.00000 50.00000 1.09000
 fix fixbond_401 all restrain bond 630 641 50.00000 50.00000 1.09000
 fix fixbond_402 all restrain bond 630 642 50.00000 50.00000 1.09000
 fix fixbond_403 all restrain bond 634 646 50.00000 50.00000 1.09000
 fix fixbond_404 all restrain bond 634 647 50.00000 50.00000 1.09000
 fix fixbond_405 all restrain bond 634 648 50.00000 50.00000 1.09000
 fix fixbond_406 all restrain bond 649 652 50.00000 50.00000 1.70000
 fix fixbond_407 all restrain bond 650 651 50.00000 50.00000 1.70000
 fix fixbond_408 all restrain bond 651 654 50.00000 50.00000 1.70000
 fix fixbond_409 all restrain bond 652 658 50.00000 50.00000 1.70000
 fix fixbond_410 all restrain bond 649 650 50.00000 50.00000 1.53000
 fix fixbond_411 all restrain bond 649 659 50.00000 50.00000 1.09000
 fix fixbond_412 all restrain bond 649 660 50.00000 50.00000 1.09000
 fix fixbond_413 all restrain bond 650 661 50.00000 50.00000 1.09000
 fix fixbond_414 all restrain bond 650 662 50.00000 50.00000 1.09000
 fix fixbond_415 all restrain bond 654 664 50.00000 50.00000 1.09000
 fix fixbond_416 all restrain bond 654 665 50.00000 50.00000 1.09000
 fix fixbond_417 all restrain bond 654 666 50.00000 50.00000 1.09000
 fix fixbond_418 all restrain bond 658 670 50.00000 50.00000 1.09000
 fix fixbond_419 all restrain bond 658 671 50.00000 50.00000 1.09000
 fix fixbond_420 all restrain bond 658 672 50.00000 50.00000 1.09000
 fix fixbond_421 all restrain bond 673 676 50.00000 50.00000 1.70000
 fix fixbond_422 all restrain bond 674 675 50.00000 50.00000 1.70000
 fix fixbond_423 all restrain bond 675 678 50.00000 50.00000 1.70000
 fix fixbond_424 all restrain bond 676 682 50.00000 50.00000 1.70000
 fix fixbond_425 all restrain bond 673 674 50.00000 50.00000 1.53000
 fix fixbond_426 all restrain bond 673 683 50.00000 50.00000 1.09000
 fix fixbond_427 all restrain bond 673 684 50.00000 50.00000 1.09000
 fix fixbond_428 all restrain bond 674 685 50.00000 50.00000 1.09000
 fix fixbond_429 all restrain bond 674 686 50.00000 50.00000 1.09000