Si Li                                   
   1.00000000000000     
     5.8224459929942425    0.0000000000000000    0.0000000000000000
     0.0000000000000000    5.8224459929942425    0.0000000000000000
     0.0000000000000000    0.0000000000000000    5.8224459929942425
   Si   Li
     8     5
Selective dynamics
Direct
  0.0144803737100374  0.0465767916443179  0.0073400129829344   T   T   T
  0.2578138081534452  0.2648747031379760  0.2632634995903258   T   T   T
  0.5299694451392315  0.5315637432524958  0.0078375722978513   T   T   T
  0.7496684029093038  0.7747849980962985  0.2627557198731760   T   T   T
  0.3413146586172453  0.8567605380733996  0.3510009334706767   T   T   T
  0.7863304586963177  0.3032854527291202  0.7589793750663323   T   T   T
  0.0342078798485876  0.5506103124279910  0.5031137279328605   T   T   T
  0.2744391590428030  0.7910286872321480  0.7547869107966936   T   T   T
  0.5339808048450305  0.0506798430110640  0.0011266781967149   T   T   T
  0.0335649818277883  0.5493321299318222  0.0171616659866022   T   T   T
  0.7189744960963956  0.2357058255792264  0.3423960862944826   T   T   T
  0.3285331111738516  0.2390142979432908  0.6811283955800491   T   T   T
  0.7218354314049831  0.8449863609458522  0.6806780977753086   T   T   T
 
  0.00000000E+00  0.00000000E+00  0.00000000E+00
  0.00000000E+00  0.00000000E+00  0.00000000E+00
  0.00000000E+00  0.00000000E+00  0.00000000E+00
  0.00000000E+00  0.00000000E+00  0.00000000E+00
  0.00000000E+00  0.00000000E+00  0.00000000E+00
  0.00000000E+00  0.00000000E+00  0.00000000E+00
  0.00000000E+00  0.00000000E+00  0.00000000E+00
  0.00000000E+00  0.00000000E+00  0.00000000E+00
  0.00000000E+00  0.00000000E+00  0.00000000E+00
  0.00000000E+00  0.00000000E+00  0.00000000E+00
  0.00000000E+00  0.00000000E+00  0.00000000E+00
  0.00000000E+00  0.00000000E+00  0.00000000E+00
  0.00000000E+00  0.00000000E+00  0.00000000E+00
