Si Li
1.0
  5.453060000000   0.000000000000   0.000000000000
  0.000000000000   5.453060000000   0.000000000000
  0.000000000000   0.000000000000   5.453060000000
Si Li
  8   5
Selective dynamics
Direct
  0.000000000000   0.000000000000   0.000000000000  T T T
  0.250000183383   0.250000183383   0.250000183383  T T T
  0.500000000000   0.500000000000   0.000000000000  T T T
  0.750000183383   0.750000183383   0.250000183383  T T T
  0.500000000000   0.000000000000   0.500000000000  T T T
  0.750000183383   0.250000183383   0.750000183383  T T T
  0.000000000000   0.500000000000   0.500000000000  T T T
  0.250000183383   0.750000183383   0.750000183383  T T T
  0.441363048509   0.032812967123   0.886538340418  T T T
  0.062524373324   0.519171951932   0.058124626962  T T T
  0.657504633949   0.341871700880   0.372836423898  T T T
  0.362352040029   0.373758118488   0.639968848500  T T T
  0.801368182122   0.771588212050   0.674099702534  T T T
