# REAX potential for high energy Au-SCH3 systems
# Title

# Intialization
units		real
dimension	3
boundary	p p p
atom_style	charge

# Atom Definition
read_data	data.He_graphene
replicate	5 4 1

# Mass Definition
mass 1 12.0107   # C
mass 2  4.002602 # He

# Potential Definition
pair_style	reax/c lmp_control
pair_coeff	* * ffield.reax.CHArHeNeKr C He

neighbor	2 bin
neigh_modify	every 10 delay 0 check no

# output
thermo_style    one #custom step etotal temp lx vol press
thermo          100

# relax structure, 0 K
fix				f1 all qeq/reax 1 0.0 10.0 1e-6 reax/c
fix             f2 all box/relax iso 0.0
minimize        1.0e-10 0.0 1000 100000
unfix           f1
unfix           f2

reset_timestep 	0

# initial velocity settings
velocity       all create 300.0 4928459 rot yes mom yes dist gaussian

# berendsen thermostat (from 300.0 K to 300.0 K)
fix		1 all nve
fix		2 all qeq/reax 1 0.0 10.0 1e-6 reax/c
fix		3 all temp/berendsen 300.0 300.0 100.0

fix		4 all reax/c/bonds 100 bonds.reaxc
fix		5 all reax/c/species 100 1 100 species.reaxc

# real unit: force = Kcal/mole-Angstrom
# 69.4786 pN = 1 kcal/mol Angstrom
variable impact_decelerate   equal  1/69.4786*(step*dt)*50/0.005 # increse 50 pN / 0.005 fs
variable impact_acceleration equal -1/69.4786*(step*dt)*50/0.005 # increse 50 pN / 0.005 fs
region	region_decelerate   block INF INF INF INF 20.0 30.0
region	region_acceleration block INF INF INF INF 10.0 20.0
group	group_decelerate   region region_decelerate
group	group_acceleration region region_acceleration
fix		6 group_decelerate   addforce 0.0 0.0 v_impact_decelerate   # test case
fix		7 group_acceleration addforce 0.0 0.0 v_impact_acceleration # test case
#group	group_gas type 2 # id 5:8
#fix		6 group_gas  addforce 0.0 0.0 v_impact_acceleration # test case

# 0.005, 0.01, 0.015, and 0.02 fs for He+, Ne+, Ar+, and Kr+ irradiations, respectively)
timestep	0.005 # 0.005 fs

# ovito settings
dump		d1 all cfg 100 cfg/run.*.cfg mass type xs ys zs id type q
dump_modify	d1 element C He

# gnuplot settings
variable	energy equal etotal
variable	temperature equal temp
fix			fout1 all ave/time 1 100 100 v_energy v_temperature file out_energy.txt

# Run the simulation
run			2500000 # 0.5 * 2500000 = 1250 ps = 1.25 ns
