Si Li                                   
   1.00000000000000     
     6.5637272998864500    0.0000000000000000    0.0000000000000000
     0.0000000000000000    6.5637272998864500    0.0000000000000000
     0.0000000000000000    0.0000000000000000    6.5637272998864500
   Si   Li
     8    11
Selective dynamics
Direct
  0.9224121482708156  0.0678418729341317  0.0638526145076668   T   T   T
  0.1734737222937994  0.3170272866491928  0.1763002578831419   T   T   T
  0.4220878798217527  0.4281218017943331  0.9234412916084338   T   T   T
  0.8093007089234590  0.8156386096164354  0.3106540567319840   T   T   T
  0.5565302510797565  0.9270062503635543  0.5590712239338131   T   T   T
  0.6688702999230216  0.1760707229527370  0.8103697510511623   T   T   T
  0.0547261316458645  0.5630053295133592  0.4282518745610133   T   T   T
  0.3046372056088131  0.6809952265376182  0.6780552796150303   T   T   T
  0.7698669490448253  0.4597172137336401  0.1297368088217254   T   T   T
  0.2764538116396054  0.0442829306097110  0.8597980305053028   T   T   T
  0.8725386030344211  0.1998682228065718  0.4561010094474085   T   T   T
  0.5335902296852097  0.1216795542461284  0.1988182096513995   T   T   T
  0.0268833424312191  0.3767719622860639  0.7902640666079179   T   T   T
  0.1254450280440622  0.7048218564638020  0.0445196504869116   T   T   T
  0.3635952832211800  0.2946951345840674  0.5297703789381742   T   T   T
  0.6025081581525313  0.7843008464309307  0.9629337245835288   T   T   T
  0.9423699555584548  0.8670635159040074  0.7062210028938480   T   T   T
  0.6886507785536438  0.5392865316212649  0.6083955634552254   T   T   T
  0.2025895944495559  0.9497872211984699  0.3697372863093378   T   T   T
 
  0.00000000E+00  0.00000000E+00  0.00000000E+00
  0.00000000E+00  0.00000000E+00  0.00000000E+00
  0.00000000E+00  0.00000000E+00  0.00000000E+00
  0.00000000E+00  0.00000000E+00  0.00000000E+00
  0.00000000E+00  0.00000000E+00  0.00000000E+00
  0.00000000E+00  0.00000000E+00  0.00000000E+00
  0.00000000E+00  0.00000000E+00  0.00000000E+00
  0.00000000E+00  0.00000000E+00  0.00000000E+00
  0.00000000E+00  0.00000000E+00  0.00000000E+00
  0.00000000E+00  0.00000000E+00  0.00000000E+00
  0.00000000E+00  0.00000000E+00  0.00000000E+00
  0.00000000E+00  0.00000000E+00  0.00000000E+00
  0.00000000E+00  0.00000000E+00  0.00000000E+00
  0.00000000E+00  0.00000000E+00  0.00000000E+00
  0.00000000E+00  0.00000000E+00  0.00000000E+00
  0.00000000E+00  0.00000000E+00  0.00000000E+00
  0.00000000E+00  0.00000000E+00  0.00000000E+00
  0.00000000E+00  0.00000000E+00  0.00000000E+00
  0.00000000E+00  0.00000000E+00  0.00000000E+00
