Si Li
1.0
  6.459620000000   0.000000000000   0.000000000000
  0.000000000000   6.459620000000   0.000000000000
  0.000000000000   0.000000000000   6.459620000000
Si Li
  8  11
Selective dynamics
Direct
  0.963313811865   0.018943235995   0.041033217651  T T T
  0.200965139374   0.275794295299   0.168007415994  T T T
  0.449245957301   0.390253264511   0.913996191417  T T T
  0.830508942368   0.772023053601   0.287682225301  T T T
  0.591290477598   0.901099607996   0.542103758874  T T T
  0.706284265545   0.140571119973   0.799094905211  T T T
  0.087340020636   0.530514237509   0.410732464294  T T T
  0.345189322545   0.645776676755   0.659081237023  T T T
  0.724217137123   0.453392330818   0.120322608033  T T T
  0.303411881349   0.084417908778   0.799886647140  T T T
  0.948337580833   0.253591606642   0.628696233246  T T T
  0.435388745282   0.073976437283   0.258265207504  T T T
  0.983975590499   0.562448915308   0.771046595899  T T T
  0.017909982491   0.602329239026   0.087469364715  T T T
  0.476128336264   0.382068744291   0.421362379474  T T T
  0.398755100501   0.789439603073   0.061865398321  T T T
  0.969414828999   0.924874873181   0.579531624105  T T T
  0.680561072122   0.637203414117   0.713861584520  T T T
  0.204291888687   0.879263526090   0.342253022871  T T T
