SYSTEM = LLM-105
PREC = Normal
ENCUT = 400.0
EDIFF = 1e-4
NELM=30
IBRION = 0
ISIF = 2
NSW = 20000
ISMEAR = 0 ; SIGMA = 0.05
ISTART=0
POTIM = 0.50
MDALGO=2 #Nose Hoover thermostat
SMASS = 1 #0 will be a frequency of 40 timestep
TEBEG = 2250 ; TEEND = 2250 #temperature

LCHARG = .FALSE.
LWAVE = .FALSE.
#EDIFFG = -1e-2
ISYM=0
IVDW=1