Si Li                                   
   1.00000000000000     
     6.4596228749464482    0.0000000000000000    0.0000000000000000
     0.0000000000000000    6.4596228749464482    0.0000000000000000
     0.0000000000000000    0.0000000000000000    6.4596228749464482
   Si   Li
     8     8
Selective dynamics
Direct
  0.9625180230756385  0.0192853593464903  0.0411692893126201   T   T   T
  0.2004612816321583  0.2756137660521389  0.1673490002410887   T   T   T
  0.4490005764460605  0.3900620715018235  0.9138092086948717   T   T   T
  0.8314230962189626  0.7722671654410362  0.2878902632478386   T   T   T
  0.5920529141353157  0.9002504310898303  0.5422555282569661   T   T   T
  0.7058868273978831  0.1405498568087964  0.7988988464126265   T   T   T
  0.0880112698084190  0.5304630424688597  0.4102193604948070   T   T   T
  0.3453309518510466  0.6454867706303986  0.6588021366710919   T   T   T
  0.4477768637483237  0.6371436942642461  0.2594079941893881   T   T   T
  0.7828747800539730  0.3666735311227995  0.1530741088675072   T   T   T
  0.6814350900116040  0.7289233627181417  0.9168670463815687   T   T   T
  0.0742857519460642  0.3119867990497411  0.7446639536470983   T   T   T
  0.3469021687791027  0.9909910134308291  0.9086090253575776   T   T   T
  0.1137101815971135  0.6501054751829116  0.9979212389986287   T   T   T
  0.7180829599790641  0.4728032176549775  0.5779079310867701   T   T   T
  0.0132844512642976  0.8883385525250134  0.6327685522565716   T   T   T
 
  0.00000000E+00  0.00000000E+00  0.00000000E+00
  0.00000000E+00  0.00000000E+00  0.00000000E+00
  0.00000000E+00  0.00000000E+00  0.00000000E+00
  0.00000000E+00  0.00000000E+00  0.00000000E+00
  0.00000000E+00  0.00000000E+00  0.00000000E+00
  0.00000000E+00  0.00000000E+00  0.00000000E+00
  0.00000000E+00  0.00000000E+00  0.00000000E+00
  0.00000000E+00  0.00000000E+00  0.00000000E+00
  0.00000000E+00  0.00000000E+00  0.00000000E+00
  0.00000000E+00  0.00000000E+00  0.00000000E+00
  0.00000000E+00  0.00000000E+00  0.00000000E+00
  0.00000000E+00  0.00000000E+00  0.00000000E+00
  0.00000000E+00  0.00000000E+00  0.00000000E+00
  0.00000000E+00  0.00000000E+00  0.00000000E+00
  0.00000000E+00  0.00000000E+00  0.00000000E+00
  0.00000000E+00  0.00000000E+00  0.00000000E+00
