Si Li
1.0
  5.453060000000   0.000000000000   0.000000000000
  0.000000000000   5.453060000000   0.000000000000
  0.000000000000   0.000000000000   5.453060000000
Si Li
  8   8
Selective dynamics
Direct
  0.000000000000   0.000000000000   0.000000000000  T T T
  0.250000183383   0.250000183383   0.250000183383  T T T
  0.500000000000   0.500000000000   0.000000000000  T T T
  0.750000183383   0.750000183383   0.250000183383  T T T
  0.500000000000   0.000000000000   0.500000000000  T T T
  0.750000183383   0.250000183383   0.750000183383  T T T
  0.000000000000   0.500000000000   0.500000000000  T T T
  0.250000183383   0.750000183383   0.750000183383  T T T
  0.363623683767   0.676548676266   0.306632836848  T T T
  0.880962584109   0.203685356130   0.305544055063  T T T
  0.817075959608   0.736223781895   0.766994885257  T T T
  0.183819220694   0.216116610509   0.751168582521  T T T
  0.459305361393   0.032177443912   0.962164984449  T T T
  0.037960112671   0.578354154530   0.022898294004  T T T
  0.541539032488   0.402119758704   0.486095766212  T T T
  0.068750499683   0.875717593810   0.410113346231  T T T
