 header
   1.0000000000000000
     8.0274830000000001    0.0014740000000000   -0.0150720000000000
    -0.0008760000000000    8.3380740000000007   -0.0029040000000000
     0.4836160000000000    0.0082110000000000   38.7101660000000010
   Al   O    H
    48    84    24
Direct
  0.1417296845044043  0.6064356335857736  0.1416114056751434
  0.1421430794254828  0.6067142859909109  0.2854150221091217
  0.1377727758446296  0.5921661104370580  0.4279574164544306
  0.1381004802655624  0.2678565239167827  0.1420907420794303
  0.1423787796071332  0.2631410701016049  0.2854438626068466
  0.1483215956988081  0.2659692410748146  0.4216864903552086
  0.3906585733977196  0.1091888178183540  0.1777106913364913
  0.3949621189039872  0.1040267214937600  0.3214463093521100
  0.3902011596451573  0.1160502517673581  0.4682278689339857
  0.3921628121039416  0.7655328825217520  0.1779041098982330
  0.3945651407103437  0.7655297788357736  0.3217181547122963
  0.3889981899300662  0.7743051967226777  0.4659150058317726
  0.8789420441314418  0.4338221460893329  0.1789784200777677
  0.8768615076729115  0.4336436973405863  0.3231113385371993
  0.8587859792297887  0.4363693872213920  0.4747281942422197
  0.2442904384212181  0.4258190904539573  0.0660644884835557
  0.2542207258172842  0.4364967258374863  0.2113881003712333
  0.2576768519889105  0.4384981032622680  0.3539241590987555
  0.4978827672691677  0.9416953867473015  0.1044414676759113
  0.5038202423211768  0.9331988157124532  0.2490663962485831
  0.5074675741482935  0.9376974300325838  0.3921342569409080
  0.1295192142478196  0.9082492819247667  0.0696474100459525
  0.1284021034092357  0.9352076095711320  0.2137761147550787
  0.1265381540491113  0.9334424178569238  0.3585080355661631
  0.8765351258842361  0.4258693794225836  0.1057327706154975
  0.8784751474214685  0.4334979714073997  0.2509860806369967
  0.8742899421320843  0.4331505443795093  0.3953575002341394
  0.5003710695344410  0.4340913470259378  0.1455100012236400
  0.5002572816548773  0.4343424434312634  0.2888949845540504
  0.5043490297792691  0.4379127507697619  0.4310897508106017
  0.1307040733995330  0.9357791652807744  0.1438723930609927
  0.1280645237757559  0.9335343351709099  0.2867447635789148
  0.1304694172513639  0.9413199509451596  0.4315402710424033
  0.7498860997712717  0.9367677815954519  0.1843766466731255
  0.7477686493210619  0.9351874526286481  0.3266008149792449
  0.7725398085503945  0.9250712192019614  0.4747385419775352
  0.6030557253828031  0.6071226574428487  0.0738235983755991
  0.6161829047369465  0.6053911255357322  0.2159724311569733
  0.6126701595780027  0.6109288142235032  0.3606113037857330
  0.6238196778337112  0.2723146075552630  0.0719171662202532
  0.6164965837004831  0.2676391918639031  0.2167538285968754
  0.6141678061307984  0.2636346898975551  0.3604983361042301
  0.8596202703106752  0.1095728659848649  0.1089384454152426
  0.8665634836071308  0.1073884688810363  0.2525330101763396
  0.8665478941364720  0.1074081742414314  0.3971782996005322
  0.8626589741744847  0.7665914242270004  0.1125954143145093
  0.8657533206250992  0.7607591750204271  0.2524485927402882
  0.8743884881709451  0.7631362492252239  0.3957468009380649
  0.3708475838756438  0.2640272795947231  0.1437006281040585
  0.3728201431360699  0.2645465822660981  0.2889077473053333
  0.3737736792613555  0.2662577361145036  0.4343945438736413
  0.3707988478239674  0.6049496423360192  0.1441904954849948
  0.3729847668895234  0.6034831116436206  0.2894397675213785
  0.3795552244032315  0.6042421581778077  0.4374086799490779
  0.3731806844979657  0.9378096484686596  0.1477038590674667
  0.3752026576125639  0.9373324898108236  0.2903644104847748
  0.3689875061919365  0.9454792530614464  0.4355078836983264
  0.1494715052826932  0.7783938091220066  0.1772202981525502
  0.1493687642077923  0.7702156219735057  0.3206241690258412
  0.1535848896381510  0.7675376804763090  0.4634721796267660
  0.1540833364578622  0.0981228140312528  0.1770272846352817
  0.1456905962700428  0.1020522165293248  0.3208688681464725
  0.1136705460947985  0.0931014138108071  0.4653693024591415
  0.1105729638447215  0.4425380456947565  0.1766180699078554
  0.1090671548301364  0.4359006399041306  0.3209195692600122
  0.0986224309705192  0.4161099056480675  0.4628288320284767
  0.4087850557789585  0.2701099169502571  0.0602809822010236
  0.3843107622038879  0.2677959728597043  0.2136631836907813
  0.3854969354227288  0.2674435488874058  0.3573414560741446
  0.3750829913816791  0.6083952883649474  0.0638009111618845
  0.3856701061093806  0.6012387902611497  0.2138128065353673
  0.3865710437646844  0.6040657020334212  0.3562540322482629
  0.3396654691283453  0.9522055621017813  0.0784964634855928
  0.3623495861793161  0.9360780376886694  0.2149205453214397
  0.3606349424030962  0.9390413522704256  0.3570981763267649
  0.1069690962393604  0.7742797461243377  0.1083811039709777
  0.1123995660179687  0.7754795006803417  0.2523468229607608
  0.1087138086647330  0.7906398716471225  0.3961360219267442
  0.1032851841368858  0.0929979856200057  0.1094504534282475
  0.1086134984164592  0.0911876110488108  0.2526156443279756
  0.1098552223416085  0.0861892721994595  0.3951950929656308
  0.1202118739976551  0.4370598841719150  0.1117617966865963
  0.1237015576156305  0.4350217467203116  0.2536085616017294
  0.1450336323788234  0.4355884085822988  0.3935942299854518
  0.8981431475361719  0.2807919376717625  0.1425287278161627
  0.8927138415401633  0.2746137268522887  0.2858314777754336
  0.8923342547729720  0.2715520730606650  0.4278065713243051
  0.8944986518726061  0.5891814687410394  0.1400503537340219
  0.8954443698930475  0.5945365600779041  0.2859214273388160
  0.9075758081313600  0.5929297146213492  0.4271993730402370
  0.8693873747135025  0.9415778587335422  0.1420614470475872
  0.8814583924160114  0.9361257434227687  0.2838401959109537
  0.8891254623196605  0.9279544783013625  0.4299651621191024
  0.6197233786892572  0.7693543509526832  0.1801151486836168
  0.6211158830382683  0.7696184098871310  0.3254333973797348
  0.6191386471028063  0.7489946301884399  0.4728106006968567
  0.6189720165876613  0.1052613037374813  0.1807042027061850
  0.6184108702530307  0.0994977930911173  0.3252342609908944
  0.6411155427247557  0.0984687449391423  0.4733207474253316
  0.6454388683248671  0.4368399167975994  0.1816763720274517
  0.6409655261505607  0.4355114155952518  0.3232294715173711
  0.6561161492520176  0.4688145475873829  0.4618215592183139
  0.8569011708703429  0.2654519320411100  0.0750024021995401
  0.8561835310788127  0.2730067001554674  0.2164841817079147
  0.8587269311550288  0.2786222691474238  0.3608992556434195
  0.8579408983410883  0.5833189908675454  0.0758542856618893
  0.8588654092141821  0.5973861112378404  0.2166651892928070
  0.8495404733475552  0.5987880273566319  0.3611038396052437
  0.8834773959408622  0.9201410844605951  0.0690033161467464
  0.8994089063253387  0.9382176822397100  0.2172228394342713
  0.8953205628458343  0.9374505827062591  0.3621278728864227
  0.6358777708291277  0.7789650892031628  0.1049569705298137
  0.6307707173656664  0.7627038520445282  0.2487829150501417
  0.6300569384490242  0.7629672019073200  0.3947588209495146
  0.6309070910575085  0.1031717548622185  0.1008321293897414
  0.6311630375036754  0.1053511278337914  0.2484370038702144
  0.6389776505382705  0.1032128548405830  0.3942836013729648
  0.6220358531753059  0.4385108331338929  0.1053210823500379
  0.6314744176775813  0.4372755175373353  0.2474767827209092
  0.6322729771923443  0.4376828050374076  0.3899606366108161
  0.8834457649974822  0.9416564467085204  0.5128147155890617
  0.1289108131728688  0.4439436843388505  0.0290406822581953
  0.3756451323066808  0.9397805450633274  0.4992977548246046
  0.6423046083094048  0.4587947112686164  0.0376556681335569
  0.8498519258879670  0.2505861017341810  0.5044725967285014
  0.1438981601151595  0.7699832146305625  0.0341519393722165
  0.3249409973993483  0.2914533329236568  0.5011683569252879
  0.6860498232587968  0.7662502618536512  0.0312302715699623
  0.3574817852400178  0.6139605173620917  0.5119802249272488
  0.6633900960674048  0.1285273282301415  0.0314099918994506
  0.9110674426190454  0.6282969612034458  0.4998942180610540
  0.1140438287394944  0.1009408380176429  0.0315295080220058
  0.9658105073425319  0.9124453329834143  0.5269464178866519
  0.6385404889641038  0.6293205114833779  0.4669398699445028
  0.8352266092369652  0.5324125622427816  0.0561028213203386
  0.0285340712288512  0.3775250422038312  0.0252492566104326
  0.6806801608800026  0.1363129511166853  0.4983266306578668
  0.4275771635773586  1.0157637268534980  0.5146183583698343
  0.5640072617418097  0.4797059070801802  0.0193310145737452
  0.3355323971453614  0.0937361959368471  0.0723467294884796
  0.1319540443034441 -0.0005526463509063  0.4897395446933467
  0.9280708223389659  0.3075326504651577  0.5167191963539690
  0.3105938433213470  0.7065548241809773  0.0542047968411759
  0.1661838315497206  0.6785715018984950  0.0201195940688897
  0.1766941296555905  0.3326281815830535  0.4806895296581443
  0.2264529859845026  0.2987557704066409  0.5154356500787390
  0.7780782685967901  0.8500657168073665  0.0523044891129877
  0.7273703620350273  0.8052458084512780  0.0070481959034380
  0.3971435312833617  0.6524735601894347  0.5328653425817294
  0.4409544408040444  0.4593263733675634  0.5075712613547883
  0.7730060483596310  0.0794752189586758  0.0388641395314543
  0.6227133560464161  0.0225115139463780  0.0236654284909162
  0.0470604399000852  0.7072638225185298  0.4713132877271856
 -0.1689093224661737  0.6903015884633901  0.5127141260472587
  0.0242340853094038  0.1450423735929054  0.0436861563342860
  0.0461583394345367 -0.0172624076434306  0.0277686227629535

 -0.37638987E-02  0.35251379E-02 -0.26584377E-03
 -0.56660794E-02  0.65349461E-02 -0.21062526E-02
 -0.77547552E-03  0.41069653E-02  0.15247320E-02
 -0.50161923E-02 -0.86112677E-03  0.13137591E-02
 -0.57620815E-02 -0.55512995E-02 -0.17805246E-02
 -0.46574312E-02 -0.59561792E-02 -0.10968327E-02
 -0.59894880E-02 -0.50767277E-02 -0.85562113E-03
 -0.81047347E-02 -0.56679584E-02 -0.31694222E-02
 -0.60385157E-03  0.11570597E-02  0.52368233E-03
 -0.54066880E-02  0.29999059E-02 -0.17953841E-02
 -0.61888727E-02  0.67442700E-02 -0.39629643E-02
 -0.56260934E-02 -0.11276869E-02  0.84820312E-05
 -0.30624182E-02  0.14164433E-02  0.72356736E-03
 -0.28009960E-02 -0.71664643E-03  0.15213515E-02
  0.12492823E-02  0.17648458E-02  0.25063830E-02
  0.16355083E-02 -0.29594832E-03  0.11006985E-03
 -0.40505499E-02 -0.12824293E-03  0.21557390E-02
 -0.24652506E-02  0.10982806E-02  0.46499487E-02
  0.18275219E-03  0.18706368E-03  0.41754687E-02
 -0.78128509E-02  0.75663728E-04  0.42852746E-02
  0.92894290E-03 -0.10878174E-02 -0.17601523E-02
  0.65782994E-02 -0.63789015E-02  0.79332688E-02
  0.10884600E-02  0.27313056E-03  0.26494587E-04
  0.18344584E-02 -0.12694422E-02  0.40540989E-03
  0.62089737E-03 -0.69765389E-03  0.22495963E-02
 -0.54940212E-03  0.33867901E-03  0.70110121E-03
 -0.23323383E-02 -0.39620859E-02  0.81694815E-04
  0.11115943E-02  0.12750144E-04  0.18082995E-02
  0.70252812E-02 -0.77071310E-03 -0.37228958E-02
 -0.56792858E-02  0.14097394E-03 -0.10233625E-01
 -0.17057466E-02  0.13815159E-03  0.18998767E-02
 -0.48852520E-03  0.77984154E-03 -0.40358229E-03
 -0.12208640E-02 -0.34243753E-02  0.18802698E-02
  0.30655484E-02 -0.72121974E-03 -0.62516238E-02
  0.30185810E-02 -0.16601294E-02 -0.10352916E-02
  0.18272597E-02  0.17222571E-02 -0.18292613E-03
  0.78367827E-03 -0.56744519E-03 -0.58491482E-02
  0.84018837E-02 -0.47177840E-02  0.66293429E-03
  0.67712803E-02 -0.40152176E-02  0.11574190E-02
  0.71400105E-02  0.34233940E-02 -0.49150776E-03
  0.67763168E-02  0.49799531E-02  0.28247792E-02
  0.74710407E-02  0.17008373E-02  0.10249256E-02
  0.18947777E-02  0.48890273E-02  0.19833698E-02
  0.61092774E-02  0.67026049E-02  0.31059237E-02
  0.34860009E-03  0.31403095E-02  0.28974402E-02
  0.32902801E-02 -0.73267866E-02  0.17814966E-02
  0.56169258E-02 -0.59987861E-02  0.22956891E-02
  0.73059713E-02 -0.52369757E-03  0.19564965E-02
  0.27612557E-02  0.22845097E-02 -0.24651571E-02
  0.43750533E-04 -0.76007684E-03  0.16762422E-02
  0.45869627E-02 -0.79855412E-02  0.94934304E-02
  0.26391076E-02 -0.19650154E-03  0.17014347E-02
  0.57976146E-03  0.24742869E-02  0.83851242E-03
  0.60345964E-02  0.95117847E-03  0.14671510E-01
  0.21515740E-02  0.38819539E-02 -0.91118685E-02
  0.39949637E-02 -0.22639777E-02 -0.49108640E-02
  0.12073850E-02  0.20523552E-02  0.56937426E-02
  0.66652327E-02 -0.55205968E-02 -0.46608107E-02
  0.67682625E-02  0.59917120E-03 -0.37380303E-02
  0.55291265E-02 -0.74488463E-02  0.29614979E-02
  0.40254245E-02  0.24389731E-02 -0.34487483E-02
  0.83208874E-02 -0.19216273E-02 -0.39002195E-02
 -0.12673685E-02  0.40556267E-02 -0.10690158E-02
  0.73916105E-02  0.65347389E-04 -0.44256481E-02
  0.75319882E-02  0.91123709E-04 -0.41414623E-03
 -0.85451758E-02  0.11541250E-01 -0.10370673E-01
 -0.43394457E-02 -0.24775838E-02  0.41464482E-02
 -0.63687400E-02  0.41144147E-02  0.22905865E-03
 -0.49829885E-02  0.27757301E-02 -0.17018416E-03
 -0.47947856E-02  0.24041205E-02 -0.71656610E-02
 -0.73995696E-02 -0.32257509E-02 -0.73646919E-03
 -0.56892985E-02 -0.26708917E-02 -0.23590285E-02
  0.17835785E-02  0.13356461E-01  0.25664639E-02
  0.26870914E-03  0.10644759E-02 -0.28065185E-02
  0.56827849E-02 -0.91505719E-04  0.24985446E-07
  0.13712860E-02  0.35628118E-02  0.59210848E-03
  0.11039217E-02  0.64448922E-04  0.10269229E-02
  0.65915368E-03  0.42083238E-02  0.27282130E-02
  0.87005889E-03 -0.34040235E-02 -0.22194048E-02
  0.45872962E-02 -0.15859015E-03  0.11163954E-02
  0.17924491E-02  0.90454600E-03 -0.38317902E-02
 -0.68983401E-02 -0.66309099E-03  0.67118236E-02
  0.65736891E-02 -0.67885835E-03 -0.41525558E-02
  0.70783144E-02 -0.11468622E-02 -0.47864295E-02
  0.42047706E-02 -0.37512484E-02 -0.56244974E-02
  0.49504954E-03 -0.20504203E-03 -0.45105198E-02
 -0.57233576E-02  0.42411795E-02 -0.53644769E-02
  0.57815319E-02 -0.32175549E-02  0.89922891E-04
 -0.13218350E-02 -0.19896254E-02 -0.28209273E-02
 -0.14568052E-01 -0.72713296E-03  0.54915180E-03
 -0.35205059E-02  0.31417403E-02 -0.19713800E-02
 -0.38105324E-02  0.15332306E-02  0.49348847E-02
  0.39270665E-02 -0.55446857E-02 -0.86875393E-02
  0.24402528E-02  0.27294751E-02  0.16875307E-02
  0.19595516E-02  0.51385751E-02 -0.12846511E-02
  0.22278624E-02 -0.38704701E-02 -0.25836703E-02
  0.37117263E-02 -0.13495214E-02 -0.69447735E-04
  0.77287571E-02 -0.19817043E-02 -0.61671326E-03
  0.40457995E-02 -0.74173938E-02  0.49211351E-02
 -0.25625854E-02 -0.86778639E-03  0.19759133E-02
 -0.55209618E-02  0.23283769E-03 -0.52207999E-03
 -0.34190574E-02  0.94102430E-02  0.19911831E-02
 -0.10726930E-01 -0.69937012E-02 -0.30323411E-02
 -0.52592400E-02 -0.27776157E-04  0.37538498E-02
 -0.51145948E-02 -0.35809901E-02  0.17905567E-02
 -0.33136434E-02 -0.41261154E-02  0.15319264E-02
 -0.49023255E-02 -0.65663083E-03  0.28626195E-02
 -0.25189174E-02  0.43770772E-02  0.74022543E-02
  0.29030850E-02 -0.62634703E-02 -0.15915545E-01
 -0.40755101E-02 -0.36222576E-03 -0.11107947E-02
 -0.94311136E-02  0.32822030E-03  0.55173504E-02
 -0.88856218E-02  0.29490822E-02 -0.48676262E-02
 -0.25063150E-02 -0.33232289E-03 -0.27413877E-03
 -0.24399973E-02  0.39496906E-02  0.32279948E-02
 -0.67049006E-02  0.53957910E-03 -0.31649318E-02
 -0.13187856E-02  0.28260992E-02 -0.13065191E-02
 -0.41825318E-02  0.18266556E-03 -0.67637411E-03
 -0.88159993E-02 -0.21567163E-03  0.14087547E-02
 -0.43897449E-02 -0.97033035E-03  0.72617707E-02
  0.24051189E-02  0.30105395E-02  0.86745968E-02
  0.35881063E-02  0.83456038E-02  0.87195204E-02
 -0.50558291E-02  0.26320064E-02 -0.97491333E-02
  0.13343644E-02 -0.35094686E-02  0.32984600E-02
 -0.32225007E-02 -0.41292243E-02  0.75245397E-02
  0.42277814E-02 -0.79813973E-02  0.68477004E-02
  0.30523736E-02  0.45160581E-02 -0.60428668E-02
  0.20125471E-03 -0.50679924E-02  0.57375343E-02
  0.23283057E-01  0.30646787E-02  0.40882064E-02
  0.21418409E-01 -0.11777208E-01 -0.15449149E-01
 -0.10375790E-01 -0.86143927E-03 -0.56730995E-03
  0.41655081E-02  0.14713059E-01  0.93237418E-02
  0.89875445E-04 -0.31514615E-02 -0.13844047E-01
  0.19492790E-01 -0.29754711E-01 -0.47640336E-01
  0.79346267E-02 -0.17704133E-01  0.15308431E-01
 -0.32647139E-01  0.16665850E-01  0.66868388E-01
 -0.71822231E-02  0.77032273E-01  0.60809808E-01
 -0.10104311E+00  0.82907795E-01  0.97699300E-01
  0.11925700E-01  0.31726192E-01 -0.13875795E-01
  0.35803307E-01  0.22094288E-02 -0.32409713E-01
  0.49612689E-01 -0.94276634E-01 -0.27678363E-01
  0.62794519E-01  0.10682156E-01 -0.10473932E+00
 -0.25460767E-01 -0.49694531E-01 -0.44076949E-01
  0.70800298E-02  0.19662082E-01  0.34629142E-01
  0.35616138E-01  0.48052227E-01  0.80392032E-02
 -0.35829923E-01  0.19655375E-01 -0.38570934E-01
  0.55871357E-01  0.44104300E-01  0.60207635E-02
  0.24805080E-01 -0.25437364E-01 -0.29470883E-01
 -0.35273170E-01 -0.22049316E-01  0.74504941E-03
 -0.97249015E-02 -0.26675658E-01  0.50222194E-01
 -0.13478807E+00  0.61694738E-01  0.70046589E-01
  0.35907208E-01 -0.31809872E-02  0.17486051E-01
  0.39684913E-01 -0.34688791E-01  0.48141582E-02
 -0.85324987E-01  0.55073447E-01 -0.12546269E-01
 -0.62898772E-01 -0.84066944E-01 -0.77448723E-01
 -0.46399969E-01 -0.40233348E-02  0.13944506E+00
 -0.52845835E-01  0.62130100E-01 -0.14569459E+00

           1
   1.0000000000000000
  0.82467815E-01  0.95216693E-03  0.10334347E-02  0.81475014E-01
  0.14126128E+00  0.60685850E+00  0.14160439E+00
  0.14144062E+00  0.60749821E+00  0.28536040E+00
  0.13767385E+00  0.59265864E+00  0.42799680E+00
  0.13747356E+00  0.26775333E+00  0.14212443E+00
  0.14166370E+00  0.26247546E+00  0.28539754E+00
  0.14774306E+00  0.26525504E+00  0.42165788E+00
  0.38991374E+00  0.10858011E+00  0.17768825E+00
  0.39395738E+00  0.10334721E+00  0.32136399E+00
  0.39012514E+00  0.11618902E+00  0.46824138E+00
  0.39149214E+00  0.76589283E+00  0.17785750E+00
  0.39380045E+00  0.76633887E+00  0.32161554E+00
  0.38829733E+00  0.77417008E+00  0.46591494E+00
  0.87855945E+00  0.43399207E+00  0.17899698E+00
  0.87651021E+00  0.43355777E+00  0.32315050E+00
  0.85893772E+00  0.43658096E+00  0.47479302E+00
  0.24449400E+00  0.42578356E+00  0.66067409E-01
  0.25371280E+00  0.43648138E+00  0.21144359E+00
  0.25736254E+00  0.43862976E+00  0.35404417E+00
  0.49789904E+00  0.94171771E+00  0.10454934E+00
  0.50284033E+00  0.93320795E+00  0.24917672E+00
  0.50758602E+00  0.93756699E+00  0.39208882E+00
  0.13032624E+00  0.90748390E+00  0.69852607E-01
  0.12853765E+00  0.93524034E+00  0.21377685E+00
  0.12676602E+00  0.93329012E+00  0.35851859E+00
  0.87660896E+00  0.42578564E+00  0.10579091E+00
  0.87840562E+00  0.43353858E+00  0.25100417E+00
  0.87399923E+00  0.43267541E+00  0.39535946E+00
  0.50050673E+00  0.43409281E+00  0.14555677E+00
  0.50113820E+00  0.43424995E+00  0.28879915E+00
  0.50365749E+00  0.43793004E+00  0.43082512E+00
  0.13048864E+00  0.93579572E+00  0.14392139E+00
  0.12800431E+00  0.93362788E+00  0.28673432E+00
  0.13031437E+00  0.94090924E+00  0.43158875E+00
  0.75027769E+00  0.93668137E+00  0.18421529E+00
  0.74814626E+00  0.93498831E+00  0.32657420E+00
  0.77276773E+00  0.92527774E+00  0.47473392E+00
  0.60316244E+00  0.60705473E+00  0.73672534E-01
  0.61722843E+00  0.60482511E+00  0.21598992E+00
  0.61351180E+00  0.61044708E+00  0.36064149E+00
  0.62470991E+00  0.27272504E+00  0.71904847E-01
  0.61733637E+00  0.26823623E+00  0.21682717E+00
  0.61509689E+00  0.26383848E+00  0.36052519E+00
  0.85985328E+00  0.11015912E+00  0.10898982E+00
  0.86731976E+00  0.10819211E+00  0.25261360E+00
  0.86658685E+00  0.10778472E+00  0.39725319E+00
  0.86306598E+00  0.76571259E+00  0.11264153E+00
  0.86644937E+00  0.76003955E+00  0.25250811E+00
  0.87529554E+00  0.76307323E+00  0.39579769E+00
  0.37119542E+00  0.26430127E+00  0.14363710E+00
  0.37282297E+00  0.26445538E+00  0.28895104E+00
  0.37433020E+00  0.26529968E+00  0.43463993E+00
  0.37112495E+00  0.60492597E+00  0.14423457E+00
  0.37305571E+00  0.60377982E+00  0.28946148E+00
  0.38028413E+00  0.60435573E+00  0.43778798E+00
  0.37346293E+00  0.93827540E+00  0.14746862E+00
  0.37570792E+00  0.93706100E+00  0.29023772E+00
  0.36912907E+00  0.94572523E+00  0.43565504E+00
  0.15030897E+00  0.77773168E+00  0.17710017E+00
  0.15021771E+00  0.77028743E+00  0.32052794E+00
  0.15426895E+00  0.76664413E+00  0.46354888E+00
  0.15459018E+00  0.98415322E-01  0.17693841E+00
  0.14673317E+00  0.10182167E+00  0.32076850E+00
  0.11351439E+00  0.93587867E-01  0.46534166E+00
  0.11150062E+00  0.44254583E+00  0.17650410E+00
  0.11000605E+00  0.43591141E+00  0.32090924E+00
  0.97574250E-01  0.41749452E+00  0.46256062E+00
  0.40823801E+00  0.26981277E+00  0.60387862E-01
  0.38351711E+00  0.26828956E+00  0.21366883E+00
  0.38487651E+00  0.26777656E+00  0.35733684E+00
  0.37449689E+00  0.60868390E+00  0.63615594E-01
  0.38474945E+00  0.60085210E+00  0.21379339E+00
  0.38586597E+00  0.60374556E+00  0.35619279E+00
  0.33988382E+00  0.95380732E+00  0.78562968E-01
  0.36238744E+00  0.93620577E+00  0.21484807E+00
  0.36134284E+00  0.93903025E+00  0.35709845E+00
  0.10713904E+00  0.77470700E+00  0.10839650E+00
  0.11253548E+00  0.77548718E+00  0.25237340E+00
  0.10879173E+00  0.79114450E+00  0.39620657E+00
  0.10339698E+00  0.92589772E-01  0.10939313E+00
  0.10918319E+00  0.91168462E-01  0.25264470E+00
  0.11008448E+00  0.86297813E-01  0.39509620E+00
  0.11934210E+00  0.43698034E+00  0.11193484E+00
  0.12452689E+00  0.43494029E+00  0.25350160E+00
  0.14592281E+00  0.43545083E+00  0.39347092E+00
  0.89867564E+00  0.28034209E+00  0.14238360E+00
  0.89278253E+00  0.27458924E+00  0.28571498E+00
  0.89162970E+00  0.27206099E+00  0.42766775E+00
  0.89521867E+00  0.58879545E+00  0.14005293E+00
  0.89528408E+00  0.59429804E+00  0.28584847E+00
  0.90576021E+00  0.59284282E+00  0.42721285E+00
  0.86895194E+00  0.94195478E+00  0.14201038E+00
  0.88097606E+00  0.93630959E+00  0.28396750E+00
  0.88962810E+00  0.92728963E+00  0.42974088E+00
  0.62002477E+00  0.76968161E+00  0.18015888E+00
  0.62136205E+00  0.77023468E+00  0.32540035E+00
  0.61942014E+00  0.74853045E+00  0.47274393E+00
  0.61943447E+00  0.10509937E+00  0.18070258E+00
  0.61937457E+00  0.99259969E-01  0.32521869E+00
  0.64161177E+00  0.97578951E-01  0.47344800E+00
  0.64511656E+00  0.43673585E+00  0.18172728E+00
  0.64027860E+00  0.43553948E+00  0.32321572E+00
  0.65568726E+00  0.46994316E+00  0.46187292E+00
  0.85556956E+00  0.26461348E+00  0.74923486E-01
  0.85552255E+00  0.27300339E+00  0.21658090E+00
  0.85808698E+00  0.27819286E+00  0.36094523E+00
  0.85752568E+00  0.58282417E+00  0.75893661E-01
  0.85825027E+00  0.59730740E+00  0.21673889E+00
  0.84921523E+00  0.59931285E+00  0.36129497E+00
  0.88386372E+00  0.91939023E+00  0.68592264E-01
  0.89890295E+00  0.93817436E+00  0.21719394E+00
  0.89413715E+00  0.93749002E+00  0.36226994E+00
  0.63477851E+00  0.77931910E+00  0.10483082E+00
  0.63045893E+00  0.76266406E+00  0.24877571E+00
  0.62974802E+00  0.76344087E+00  0.39484213E+00
  0.63007680E+00  0.10323670E+00  0.10075005E+00
  0.63100083E+00  0.10569013E+00  0.24840321E+00
  0.63845769E+00  0.10323487E+00  0.39426593E+00
  0.62093546E+00  0.43848513E+00  0.10535704E+00
  0.63091628E+00  0.43715906E+00  0.24766415E+00
  0.63255912E+00  0.43804359E+00  0.39018487E+00
  0.88387927E+00  0.94265705E+00  0.51304021E+00
  0.12829622E+00  0.44425970E+00  0.28788617E-01
  0.37580618E+00  0.93935954E+00  0.49938300E+00
  0.64189142E+00  0.45829937E+00  0.37849852E-01
  0.85036782E+00  0.24962861E+00  0.50464962E+00
  0.14428785E+00  0.77052492E+00  0.33996026E-01
  0.32495707E+00  0.29084537E+00  0.50131654E+00
  0.68894385E+00  0.76661720E+00  0.31337037E-01
  0.36017375E+00  0.61254797E+00  0.51158207E+00
  0.66209847E+00  0.12842426E+00  0.31394826E-01
  0.91157201E+00  0.63006120E+00  0.50013541E+00
  0.11407653E+00  0.10056322E+00  0.31171859E-01
  0.96831248E+00  0.90887757E+00  0.52571643E+00
  0.63950485E+00  0.62719666E+00  0.46733555E+00
  0.83105593E+00  0.53441036E+00  0.57828759E-01
  0.27545717E-01  0.38676229E+00  0.26820465E-01
  0.66794230E+00  0.14625600E+00  0.50084628E+00
  0.42908473E+00  0.19568791E-01  0.51426078E+00
  0.56851771E+00  0.47997091E+00  0.18495550E-01
  0.34175450E+00  0.82429035E-01  0.71633288E-01
  0.13993944E+00  0.72973321E-03  0.48703702E+00
  0.92496717E+00  0.30157437E+00  0.51557890E+00
  0.31142215E+00  0.70891190E+00  0.55099871E-01
  0.17060859E+00  0.68433350E+00  0.20329426E-01
  0.17229110E+00  0.33498725E+00  0.47969159E+00
  0.23340402E+00  0.30404389E+00  0.51559429E+00
  0.78121376E+00  0.84701516E+00  0.51544160E-01
  0.72297498E+00  0.80260215E+00  0.70655331E-02
  0.39585361E+00  0.64927325E+00  0.53416199E+00
  0.42405577E+00  0.46672674E+00  0.50937475E+00
  0.77745172E+00  0.79092485E-01  0.39317559E-01
  0.62764894E+00  0.18350229E-01  0.23791402E-01
  0.36451797E-01  0.71387108E+00  0.47098555E+00
  0.82337491E+00  0.68022263E+00  0.51070963E+00
  0.18237016E-01  0.14455736E+00  0.47286070E-01
  0.39802901E-01  0.99019380E+00  0.24002978E-01
  0.00000000E+00  0.00000000E+00  0.00000000E+00
  0.00000000E+00  0.00000000E+00  0.00000000E+00
  0.00000000E+00  0.00000000E+00  0.00000000E+00
  0.00000000E+00  0.00000000E+00  0.00000000E+00
  0.00000000E+00  0.00000000E+00  0.00000000E+00
  0.00000000E+00  0.00000000E+00  0.00000000E+00
  0.00000000E+00  0.00000000E+00  0.00000000E+00
  0.00000000E+00  0.00000000E+00  0.00000000E+00
  0.00000000E+00  0.00000000E+00  0.00000000E+00
  0.00000000E+00  0.00000000E+00  0.00000000E+00
  0.00000000E+00  0.00000000E+00  0.00000000E+00
  0.00000000E+00  0.00000000E+00  0.00000000E+00
  0.00000000E+00  0.00000000E+00  0.00000000E+00
  0.00000000E+00  0.00000000E+00  0.00000000E+00
  0.00000000E+00  0.00000000E+00  0.00000000E+00
  0.00000000E+00  0.00000000E+00  0.00000000E+00
  0.00000000E+00  0.00000000E+00  0.00000000E+00
  0.00000000E+00  0.00000000E+00  0.00000000E+00
  0.00000000E+00  0.00000000E+00  0.00000000E+00
  0.00000000E+00  0.00000000E+00  0.00000000E+00
  0.00000000E+00  0.00000000E+00  0.00000000E+00
  0.00000000E+00  0.00000000E+00  0.00000000E+00
  0.00000000E+00  0.00000000E+00  0.00000000E+00
  0.00000000E+00  0.00000000E+00  0.00000000E+00
  0.00000000E+00  0.00000000E+00  0.00000000E+00
  0.00000000E+00  0.00000000E+00  0.00000000E+00
  0.00000000E+00  0.00000000E+00  0.00000000E+00
  0.00000000E+00  0.00000000E+00  0.00000000E+00
  0.00000000E+00  0.00000000E+00  0.00000000E+00
  0.00000000E+00  0.00000000E+00  0.00000000E+00
  0.00000000E+00  0.00000000E+00  0.00000000E+00
  0.00000000E+00  0.00000000E+00  0.00000000E+00
  0.00000000E+00  0.00000000E+00  0.00000000E+00
  0.00000000E+00  0.00000000E+00  0.00000000E+00
  0.00000000E+00  0.00000000E+00  0.00000000E+00
  0.00000000E+00  0.00000000E+00  0.00000000E+00
  0.00000000E+00  0.00000000E+00  0.00000000E+00
  0.00000000E+00  0.00000000E+00  0.00000000E+00
  0.00000000E+00  0.00000000E+00  0.00000000E+00
  0.00000000E+00  0.00000000E+00  0.00000000E+00
  0.00000000E+00  0.00000000E+00  0.00000000E+00
  0.00000000E+00  0.00000000E+00  0.00000000E+00
  0.00000000E+00  0.00000000E+00  0.00000000E+00
  0.00000000E+00  0.00000000E+00  0.00000000E+00
  0.00000000E+00  0.00000000E+00  0.00000000E+00
  0.00000000E+00  0.00000000E+00  0.00000000E+00
  0.00000000E+00  0.00000000E+00  0.00000000E+00
  0.00000000E+00  0.00000000E+00  0.00000000E+00
  0.00000000E+00  0.00000000E+00  0.00000000E+00
  0.00000000E+00  0.00000000E+00  0.00000000E+00
  0.00000000E+00  0.00000000E+00  0.00000000E+00
  0.00000000E+00  0.00000000E+00  0.00000000E+00
  0.00000000E+00  0.00000000E+00  0.00000000E+00
  0.00000000E+00  0.00000000E+00  0.00000000E+00
  0.00000000E+00  0.00000000E+00  0.00000000E+00
  0.00000000E+00  0.00000000E+00  0.00000000E+00
  0.00000000E+00  0.00000000E+00  0.00000000E+00
  0.00000000E+00  0.00000000E+00  0.00000000E+00
  0.00000000E+00  0.00000000E+00  0.00000000E+00
  0.00000000E+00  0.00000000E+00  0.00000000E+00
  0.00000000E+00  0.00000000E+00  0.00000000E+00
  0.00000000E+00  0.00000000E+00  0.00000000E+00
  0.00000000E+00  0.00000000E+00  0.00000000E+00
  0.00000000E+00  0.00000000E+00  0.00000000E+00
  0.00000000E+00  0.00000000E+00  0.00000000E+00
  0.00000000E+00  0.00000000E+00  0.00000000E+00
  0.00000000E+00  0.00000000E+00  0.00000000E+00
  0.00000000E+00  0.00000000E+00  0.00000000E+00
  0.00000000E+00  0.00000000E+00  0.00000000E+00
  0.00000000E+00  0.00000000E+00  0.00000000E+00
  0.00000000E+00  0.00000000E+00  0.00000000E+00
  0.00000000E+00  0.00000000E+00  0.00000000E+00
  0.00000000E+00  0.00000000E+00  0.00000000E+00
  0.00000000E+00  0.00000000E+00  0.00000000E+00
  0.00000000E+00  0.00000000E+00  0.00000000E+00
  0.00000000E+00  0.00000000E+00  0.00000000E+00
  0.00000000E+00  0.00000000E+00  0.00000000E+00
  0.00000000E+00  0.00000000E+00  0.00000000E+00
  0.00000000E+00  0.00000000E+00  0.00000000E+00
  0.00000000E+00  0.00000000E+00  0.00000000E+00
  0.00000000E+00  0.00000000E+00  0.00000000E+00
  0.00000000E+00  0.00000000E+00  0.00000000E+00
  0.00000000E+00  0.00000000E+00  0.00000000E+00
  0.00000000E+00  0.00000000E+00  0.00000000E+00
  0.00000000E+00  0.00000000E+00  0.00000000E+00
  0.00000000E+00  0.00000000E+00  0.00000000E+00
  0.00000000E+00  0.00000000E+00  0.00000000E+00
  0.00000000E+00  0.00000000E+00  0.00000000E+00
  0.00000000E+00  0.00000000E+00  0.00000000E+00
  0.00000000E+00  0.00000000E+00  0.00000000E+00
  0.00000000E+00  0.00000000E+00  0.00000000E+00
  0.00000000E+00  0.00000000E+00  0.00000000E+00
  0.00000000E+00  0.00000000E+00  0.00000000E+00
  0.00000000E+00  0.00000000E+00  0.00000000E+00
  0.00000000E+00  0.00000000E+00  0.00000000E+00
  0.00000000E+00  0.00000000E+00  0.00000000E+00
  0.00000000E+00  0.00000000E+00  0.00000000E+00
  0.00000000E+00  0.00000000E+00  0.00000000E+00