#hydrogen with ReaxFF potential at 3639K

boundary p p p
restart 1000000 restart

#Simulation Units
units real
atom_style charge

#Reads configuration from file
#read_restart restart.last
read_data init.data

#Mass relative mass of atoms
mass 1 1.08000

pair_style reax/c lmp_control 
pair_coeff * * ffield.reax.cho H 

thermo_style multi
neigh_modify delay 0 every 1 check yes

#Applies or "fixes" NVT MD
velocity all create 100.0 234324324 dist gaussian mom yes rot yes

###set NVT
variable T equal 3639
fix 1 all nve
fix 2 all qeq/reax 1 0.0 10.0 1e-6 param.qeq
fix 3 all temp/berendsen $T $T 100

##compute temp over x axe
dump 1 all xyz 500 h2_trj.xyz
dump_modify 1 element H

#Dumps output files and thermodynamic properties
thermo_style custom step temp press pe enthalpy
thermo 500

#Timestep is 1 fs (0.001 ps)
timestep 0.1

#dump 2 all atom 30 dump.reax.test
#Number of time steps

run 1000000
