Si Li                                   
   1.00000000000000     
     5.4946609423288981    0.0000000000000000    0.0000000000000000
     0.0000000000000000    5.4946609423288981    0.0000000000000000
     0.0000000000000000    0.0000000000000000    5.4946609423288981
   Si   Li
     8     1
Selective dynamics
Direct
  0.0066998239420215  0.0039848251271337  0.0157404623147315   T   T   T
  0.2504328803708304  0.2468342678462250  0.2593344354195040   T   T   T
  0.4931217150359686  0.4905099831236015  0.0156369822190001   T   T   T
  0.7500875856888172  0.7470643380506345  0.2590630053113685   T   T   T
  0.4935782618842310  0.0034881512778711  0.5027803411103093   T   T   T
  0.7500424272707278  0.2472668268618392  0.7591476069175869   T   T   T
  0.0067081930156832  0.4903245307080439  0.5022723073893545   T   T   T
  0.2497009852075536  0.7470661193278332  0.7590892021052369   T   T   T
  0.7498350809631731  0.7468854856108180  0.7595218087669053   T   T   T
 
  0.00000000E+00  0.00000000E+00  0.00000000E+00
  0.00000000E+00  0.00000000E+00  0.00000000E+00
  0.00000000E+00  0.00000000E+00  0.00000000E+00
  0.00000000E+00  0.00000000E+00  0.00000000E+00
  0.00000000E+00  0.00000000E+00  0.00000000E+00
  0.00000000E+00  0.00000000E+00  0.00000000E+00
  0.00000000E+00  0.00000000E+00  0.00000000E+00
  0.00000000E+00  0.00000000E+00  0.00000000E+00
  0.00000000E+00  0.00000000E+00  0.00000000E+00
