Si Li                                   
   1.00000000000000     
     5.9558371312837330    0.0000000000000000    0.0000000000000000
     0.0000000000000000    5.9558371312837330    0.0000000000000000
     0.0000000000000000    0.0000000000000000    5.9558371312837330
   Si   Li
     8     6
Selective dynamics
Direct
  0.0431639154023955  0.0076086207732686  0.9921626712565015   T   T   T
  0.1145456514061181  0.3957245178725231  0.0780300875264430   T   T   T
  0.5166578500371202  0.4795119705844471  0.0506379859806358   T   T   T
  0.7422905382864187  0.7150895683562410  0.3147842511087191   T   T   T
  0.5290542185263760  0.9564382995147653  0.5657008146841562   T   T   T
  0.7834529263942116  0.2305063229959075  0.7739088726752357   T   T   T
  0.0009750288199726  0.4657397128742176  0.4914305066516675   T   T   T
  0.2679780913972820  0.7041825008295319  0.8012652984633348   T   T   T
  0.1075345782940289  0.0493471878215672  0.5460959696912013   T   T   T
  0.7933388490843640  0.7016882861193636  0.8099914324497917   T   T   T
  0.4565072338346567  0.0551510208503387  0.0178577481649427   T   T   T
  0.7719777881588854  0.1691861230403049  0.2738365802366047   T   T   T
  0.2535935283021615  0.7548247568352195  0.2867737570115807   T   T   T
  0.4390987023590043  0.3907700414723223  0.4995373120131958   T   T   T
 
  0.00000000E+00  0.00000000E+00  0.00000000E+00
  0.00000000E+00  0.00000000E+00  0.00000000E+00
  0.00000000E+00  0.00000000E+00  0.00000000E+00
  0.00000000E+00  0.00000000E+00  0.00000000E+00
  0.00000000E+00  0.00000000E+00  0.00000000E+00
  0.00000000E+00  0.00000000E+00  0.00000000E+00
  0.00000000E+00  0.00000000E+00  0.00000000E+00
  0.00000000E+00  0.00000000E+00  0.00000000E+00
  0.00000000E+00  0.00000000E+00  0.00000000E+00
  0.00000000E+00  0.00000000E+00  0.00000000E+00
  0.00000000E+00  0.00000000E+00  0.00000000E+00
  0.00000000E+00  0.00000000E+00  0.00000000E+00
  0.00000000E+00  0.00000000E+00  0.00000000E+00
  0.00000000E+00  0.00000000E+00  0.00000000E+00
