Si Li
1.0
  5.453060000000   0.000000000000   0.000000000000
  0.000000000000   5.453060000000   0.000000000000
  0.000000000000   0.000000000000   5.453060000000
Si Li
  8   6
Selective dynamics
Direct
  0.000000000000   0.000000000000   0.000000000000  T T T
  0.250000183383   0.250000183383   0.250000183383  T T T
  0.500000000000   0.500000000000   0.000000000000  T T T
  0.750000183383   0.750000183383   0.250000183383  T T T
  0.500000000000   0.000000000000   0.500000000000  T T T
  0.750000183383   0.250000183383   0.750000183383  T T T
  0.000000000000   0.500000000000   0.500000000000  T T T
  0.250000183383   0.750000183383   0.750000183383  T T T
  0.928407663440   0.924045089821   0.540215808867  T T T
  0.923208414340   0.607426088747   0.934153616612  T T T
  0.464321045431   0.072865292240   0.916385427998  T T T
  0.729104744730   0.260675151236   0.267741548708  T T T
  0.324714463952   0.752341156580   0.267259310791  T T T
  0.450411834878   0.458415417784   0.576256841406  T T T
