Si                                      
   1.00000000000000     
     5.4530599999999998    0.0000000000000000    0.0000000000000000
     0.0000000000000000    5.4530599999999998    0.0000000000000000
     0.0000000000000000    0.0000000000000000    5.4530599999999998
   Si
     8
Selective dynamics
Direct
  0.0000000000000000  0.0000000000000000  0.0000000000000000   T   T   T
  0.2500001788010024  0.2500001788010024  0.2500001788010024   T   T   T
  0.5000000000000000  0.5000000000000000  0.0000000000000000   T   T   T
  0.7500001788010024  0.7500001788010024  0.2500001788010024   T   T   T
  0.5000000000000000  0.0000000000000000  0.5000000000000000   T   T   T
  0.7500001788010024  0.2500001788010024  0.7500001788010024   T   T   T
  0.0000000000000000  0.5000000000000000  0.5000000000000000   T   T   T
  0.2500001788010024  0.7500001788010024  0.7500001788010024   T   T   T
 
  0.00000000E+00  0.00000000E+00  0.00000000E+00
  0.00000000E+00  0.00000000E+00  0.00000000E+00
  0.00000000E+00  0.00000000E+00  0.00000000E+00
  0.00000000E+00  0.00000000E+00  0.00000000E+00
  0.00000000E+00  0.00000000E+00  0.00000000E+00
  0.00000000E+00  0.00000000E+00  0.00000000E+00
  0.00000000E+00  0.00000000E+00  0.00000000E+00
  0.00000000E+00  0.00000000E+00  0.00000000E+00
