Si
1.0
  5.453060000000   0.000000000000   0.000000000000
  0.000000000000   5.453060000000   0.000000000000
  0.000000000000   0.000000000000   5.453060000000
Si
  8
Selective dynamics
Direct
  0.000000000000   0.000000000000   0.000000000000  T T T
  0.250000178801   0.250000178801   0.250000178801  T T T
  0.500000000000   0.500000000000   0.000000000000  T T T
  0.750000178801   0.750000178801   0.250000178801  T T T
  0.500000000000   0.000000000000   0.500000000000  T T T
  0.750000178801   0.250000178801   0.750000178801  T T T
  0.000000000000   0.500000000000   0.500000000000  T T T
  0.250000178801   0.750000178801   0.750000178801  T T T
