Si Li                                   
   1.00000000000000     
     6.6674917875032582    0.0000000000000000    0.0000000000000000
     0.0000000000000000    6.6674917875032582    0.0000000000000000
     0.0000000000000000    0.0000000000000000    6.6674917875032582
   Si   Li
     8    13
Selective dynamics
Direct
  0.9041782029121137  0.0470005965233327  0.0130707274289676   T   T   T
  0.1662136881052021  0.2926046377318201  0.1227881643975834   T   T   T
  0.4105161565062048  0.4050510793127984  0.8702269532988396   T   T   T
  0.8015079832059442  0.7915198637077268  0.2579900665690360   T   T   T
  0.5439794193620244  0.9100836854123386  0.4947932108190685   T   T   T
  0.6536664782868868  0.1515869882901484  0.7560874125001931   T   T   T
  0.0480905384652246  0.5410115693425510  0.3714733467172309   T   T   T
  0.2972133662559244  0.6602016179266812  0.6196887369274293   T   T   T
  0.6818208961901391  0.5076412336690126  0.5521116028936248   T   T   T
  0.6216944509012308  0.7441122453890330  0.8618600783556971   T   T   T
  0.0162966507797080  0.3586736325863740  0.7380588358521152   T   T   T
  0.1793085571150428  0.9315429230610022  0.3239107457489325   T   T   T
  0.4915553217297202  0.9646474347658085  0.0993389447594666   T   T   T
  0.7949286740561661  0.4479376373841149  0.0488755484050785   T   T   T
  0.4288812085839453  0.6080604747459049  0.2341991241936228   T   T   T
  0.3207918739999798  0.2711891011456089  0.5013320204605591   T   T   T
  0.8768697286343397  0.1770490370521287  0.4061356478168889   T   T   T
  0.2594505744994891  0.0191441693656316  0.7985064412282199   T   T   T
  0.1126986719632797  0.6916541500191187  0.9830324078490378   T   T   T
  0.9347712736693055  0.8448911959498915  0.6446830316208434   T   T   T
  0.5480934087271407  0.2522294780340175  0.2235333993965440   T   T   T
 
  0.00000000E+00  0.00000000E+00  0.00000000E+00
  0.00000000E+00  0.00000000E+00  0.00000000E+00
  0.00000000E+00  0.00000000E+00  0.00000000E+00
  0.00000000E+00  0.00000000E+00  0.00000000E+00
  0.00000000E+00  0.00000000E+00  0.00000000E+00
  0.00000000E+00  0.00000000E+00  0.00000000E+00
  0.00000000E+00  0.00000000E+00  0.00000000E+00
  0.00000000E+00  0.00000000E+00  0.00000000E+00
  0.00000000E+00  0.00000000E+00  0.00000000E+00
  0.00000000E+00  0.00000000E+00  0.00000000E+00
  0.00000000E+00  0.00000000E+00  0.00000000E+00
  0.00000000E+00  0.00000000E+00  0.00000000E+00
  0.00000000E+00  0.00000000E+00  0.00000000E+00
  0.00000000E+00  0.00000000E+00  0.00000000E+00
  0.00000000E+00  0.00000000E+00  0.00000000E+00
  0.00000000E+00  0.00000000E+00  0.00000000E+00
  0.00000000E+00  0.00000000E+00  0.00000000E+00
  0.00000000E+00  0.00000000E+00  0.00000000E+00
  0.00000000E+00  0.00000000E+00  0.00000000E+00
  0.00000000E+00  0.00000000E+00  0.00000000E+00
  0.00000000E+00  0.00000000E+00  0.00000000E+00
