Si Li
1.0
  6.459620000000   0.000000000000   0.000000000000
  0.000000000000   6.459620000000   0.000000000000
  0.000000000000   0.000000000000   6.459620000000
Si Li
  8  13
Selective dynamics
Direct
  0.963313811865   0.018943235995   0.041033217651  T T T
  0.200965139374   0.275794295299   0.168007415994  T T T
  0.449245957301   0.390253264511   0.913996191417  T T T
  0.830508942368   0.772023053601   0.287682225301  T T T
  0.591290477598   0.901099607996   0.542103758874  T T T
  0.706284265545   0.140571119973   0.799094905211  T T T
  0.087340020636   0.530514237509   0.410732464294  T T T
  0.345189322545   0.645776676755   0.659081237023  T T T
  0.667464769321   0.405700236484   0.351009265437  T T T
  0.535899199798   0.859626794130   0.861067816234  T T T
  0.855103208532   0.404232039160   0.696098958685  T T T
  0.180817420297   0.915635887931   0.439428337549  T T T
  0.519404297761   0.937791506745   0.177734325688  T T T
  0.775593623015   0.551913224214   0.972414578149  T T T
  0.360774226797   0.563012015537   0.211003132135  T T T
  0.257727927014   0.332820192953   0.602433026865  T T T
  0.908537875494   0.163209212291   0.427264124763  T T T
  0.061939108771   0.086294235899   0.711196611844  T T T
  0.198689544989   0.760786023930   0.941026061301  T T T
  0.955990985615   0.738367707946   0.612911185302  T T T
  0.640446999313   0.223468182556   0.096377607522  T T T
